LAMMPS data file via write_data, version 29 Oct 2020, timestep = 10000

32 atoms
1 atom types

0.0 9.2745695  xlo xhi
0.0 9.404759  ylo yhi
0.0 9.327268  zlo zhi


Masses

1 107.8682  

Atoms # atomic

1 1  6.23553  5.90929  2.64229
2 1  3.73704  5.62215  2.75764
3 1  5.33635  6.77172  9.32089
4 1  2.47292  6.92968  0.30114
5 1  5.03143  6.95090  4.88121
6 1  1.34700  4.66031  4.01744
7 1  8.14181  2.06948  8.04926
8 1  3.51388 -0.07445  8.58126
9 1  5.83871  4.57854  0.11272
10 1  7.68887  9.24967  0.13357
11 1  0.79516  2.41623  5.50362
12 1  2.87285  0.65957  4.26867
13 1  2.89803  5.23162  6.06295
14 1  9.20952  6.53011  6.36024
15 1  8.73667  6.74638  0.23419
16 1  6.71323 -0.11589  6.40826
17 1  5.04899  2.79727  5.10659
18 1  6.86597  4.73721  5.54178
19 1  1.67267  0.03972  1.46803
20 1  3.88279  2.94835  1.36331
21 1  1.01313  0.10851  8.32041
22 1  1.44748  4.66894  8.55605
23 1  0.40582  0.81869  2.92724
24 1  7.04814  9.01846  2.92491
25 1  7.32759  3.64054  3.47515
26 1  3.95290  8.23463  2.29137
27 1  7.54509  7.10563  4.49536
28 1  0.34078  9.03380  6.05972
29 1  2.63611  7.65463  5.26308
30 1  0.73097  7.05423  2.73918
31 1  6.02121  2.00046  1.97077
32 1  3.86784  3.09266  7.75785

# Velocities

# 8 -3.5380061862641172 -5.900428775866433 -0.43409711073588747
# 15 0.939283263976367 0.5489767237042799 1.1773047561773247
# 38 0.12235482500634291 0.45971748046353084 -1.2186373352702466
# 53 3.1453328811368513 1.006382935627505 -6.707146488569439
# 44 -0.5186847900886397 -0.011300224648338911 -0.33950395613829304
# 19 3.215578590423062 -1.7932434376101245 2.020947202487345
# 37 -0.22282665429971793 1.1652343140615797 1.9610624681353435
# 3 0.14130008672813055 2.2839910845476497 -0.8647462791662143
# 16 -1.319114164219109 -1.225257702411709 1.966257165445597
# 56 -5.820715309683025 2.547195680598535 1.7698193279608936
# 14 1.4689372495888118 -1.2744147235343037 2.1395328061866548
# 17 0.18986174784737656 1.2021984740444616 -3.8378584143548915
# 51 -1.051519990392749 -1.694129563328133 0.7598368873942585
# 5 -2.512252269591839 -3.455750650754748 0.6154233821041817
# 4 -2.3335408890758496 0.6652880343280605 2.7562215083428065
# 49 -1.2615532450969527 3.60254974120488 -0.7651618707346125
# 42 -2.053671544062173 -1.1480809532061536 1.3430470819699556
# 12 1.2135255329751131 1.2496945137533966 0.21150714390393685
# 23 0.09112236978013259 1.4154332574203998 -0.06932933128909037
# 46 1.1855465143676636 1.2061647048088373 1.808799679004114
# 57 0.5316954280133083 0.7431608708949207 0.9369975025138066
# 21 1.3136303425625524 2.770368162186873 -0.12861171284470316
# 59 0.00734267967365482 -0.5174507392211913 0.29879393299109425
# 7 -0.21098029877724872 -0.8442133024106352 -2.2009811227359135
# 11 -0.15670481918507123 1.5303458395246272 -4.66838290787283
# 6 0.6109199392091086 -2.1177687506828184 2.010593251703069
# 47 2.8453507576753134 2.1003374997588584 -3.0524730867944845
# 41 1.539922692193229 1.4409583753574193 -0.45747295448639447
# 20 -1.7407833799616843 0.7063854236139673 0.8532153469811238
# 18 0.5811985973435316 3.4740471244739637 -2.6080193724828202
# 50 0.671371572803626 1.7759963725722212 -1.5252420327108338
# 27 1.1813647270907386 -0.9383928512541382 0.24845166184645162
# 32 1.8345619841071794 4.552703027029724 0.3474056165661485
# 62 2.50804775872579 0.5541732257203411 -0.17560224092548496
# 65 2.1962806884579105 1.651822647727896 0.0448509025809691
# 28 1.825553615142201 1.3619841760781848 1.8154135561635119
# 29 0.08448629681161049 0.4732199043381903 0.4000273476493314
# 43 -1.479000287112981 1.4018395832846926 1.8700005566761022
# 64 -2.166589346851214 0.4146008575044088 3.7904331363937334
# 68 0.5221084025548614 2.3513818683683287 0.47110022900288867
# 67 -0.3253298923459217 -2.0422117746341657 -0.8865535645755367
# 54 -2.0750873215657597 4.088425324697505 1.0095533257645701
# 58 -1.4047719721014835 1.623005198589496 -0.08603069997775543
# 61 1.1456364557068264 -0.5973246318364032 -0.12964059330856473
# 60 0.8842043999676865 1.74972667099937 -0.9621756454347621
# 66 -1.4991354246034232 -2.8445175564243774 0.9801206289412016
# 31 -2.3553780624467375 1.8527311309329166 0.45264614838113476
# 24 -2.1160931893769823 -3.348678915984681 2.2341800097388784
# 45 1.333087611673213 -2.741885265856349 -2.023506631187732
# 35 2.7021809157627943 0.9500548225157496 0.30750138611449074
# 36 -0.44033230551989483 0.38473569345791253 0.24014255758845604
# 69 1.0085580075396396 2.4853004477066105 1.732776204527878
# 70 -2.4202618142565977 -1.7989946176492773 5.810795429221138
# 34 -1.4454019068774133 -2.660974397150545 -0.7980327740894759
# 9 -4.742258786670869 0.6621354351405285 1.1259970577516265
# 71 -1.0775745902940224 -0.10774176675744745 -1.7490526403073772
# 2 1.383410097019108 0.28170849914671586 0.31091705516524354
# 74 -1.331538661648798 2.361956413354369 0.7461309163203835
# 80 -0.3005510991008225 0.811900850692001 -2.7684143502843868
# 87 1.406531882891544 0.808823965640363 0.34145007566125907
# 89 -1.5500302076031434 1.0968884204314222 -0.3961757228512936
# 77 0.4542278450683503 -2.1650319096608373 -0.04192979109154132
# 92 -0.22689356456409712 -2.0284019545338206 1.2475789221759195
# 88 0.2503329735686307 -4.578348461029478 0.2762131997282133
# 86 1.9089664629986745 -1.5993193897320828 3.4304128839931973
# 73 2.3067731680767736 -2.6638064790928584 2.372372430708032
# 55 1.8310585663607606 -2.513425694301281 -0.9268114112470085
# 13 1.9377818244949234 0.6458019469330916 -0.5773182155636457
# 78 2.924354785508671 -0.5358008929750536 2.4542270092169116
# 1 0.6440564425540403 2.764801400643494 1.5280115943409889
# 10 -0.09313538584764287 -0.35808857611738987 -0.40247482494965253
# 48 1.037520252333107 -2.732095934823343 5.4282156869969915
# 76 1.112569851049956 -2.33288299158284 -1.161994044984073
# 40 1.9040293044241279 -3.0917064527497216 -0.40266344545660143
# 85 3.3628823692229597 -0.7197443326934495 -2.064618402562714
# 91 3.3618201214829915 -1.4811250206025626 -2.6241555786619117
# 82 -0.3481691106300536 -3.159923849706617 1.0904097917091922
# 84 2.2559469953183133 1.9269847094199453 1.8735198402302844
# 93 -0.5847804505908835 2.1252668937679493 0.3060710235309791
# 95 -0.19594036675881812 4.609186674729712 -6.454150707754217
# 79 1.6269244408675274 -2.6869111128691934 -3.1674091434525415
# 83 -1.9110737655874759 3.5504827377372754 -1.2838985326802714
# 94 -1.1688723034408286 -6.1771355123467275 0.521873175769066
# 39 1.909548527950432 -5.3346537172790764 -4.302132400392452
# 26 -1.4596626746205754 -3.1386379651140683 -3.0311661322834875
# 52 -0.5728936401496412 -1.3939721568110777 3.570836741025022
# 63 0.2368621484509445 1.8542033363501278 -0.9146196962276885
# 75 0.09974338540883719 0.25280688478551727 -3.108593765508628
# 98 -3.08599420525946 1.2006322827081235 -0.049620426827801434
# 99 -0.5624236536110221 0.2622580070075033 -0.62377517724112
# 101 0.7938681626526033 -0.6461107425016529 0.8307088272929786
# 104 1.2352054292421177 0.07025446435715926 0.06192220478387326
# 25 -4.405789182889658 2.251487794758439 1.8004429949606666
# 102 0.10009516213882208 -0.9065600544819526 -0.6571060365000078
# 90 0.23255166612547803 2.4114852963139173 -1.233110883055376
# 97 0.8991102369809598 -3.8486381906267004 -3.8902374597124036
# 103 -2.154226484764249 0.5347370990288253 0.6165701735257091
# 22 0.4471308165830601 -1.0940534184780064 -2.1716293748780156
# 81 -2.182065340582301 0.024733953332846375 1.9477202548180834
# 30 0.7971688284895925 1.4010354544021448 2.9565497309383306
# 33 -1.6414965810955235 -1.6224647824856502 0.32756382917683374
# 72 2.33143177114733 -1.205022010371472 -0.01774737224956104
# 96 -1.2638877973270488 -0.9425531676529677 -1.7136867635379855
# 100 -0.678245055945638 1.7466357782010344 0.7058959254008995
# 105 0.5787552952458018 1.2927564158567169 -0.7726845439945178
# 106 -2.8427919448871606 0.5152792557724695 1.729452089718221
# 107 0.8290027631141462 -0.1465429385329618 0.0791642617233557
# 108 -2.3919775939890116 2.9113431479658103 -1.6186028671782593
