LAMMPS data file via write_data, version 29 Oct 2020, timestep = 10000

2916 atoms
1 atom types

0.0 32.7078 xlo xhi
0.0 32.7078 ylo yhi
0.0 32.7078 zlo zhi

Masses

1 63.546

Atoms # atomic

8 1 3.684410537535448 1.7285803564223978 1.8216267131349257
15 1 1.855799620368978 3.58685361540633 1.8658382426672893
38 1 1.705817218078718 1.7063147774037226 3.4670512335421195
53 1 3.544270339869786 3.6135740830690164 3.7163619725992008
44 1 3.5164598343827667 1.7630764733452133 5.372682914358216
19 1 5.367803081538759 3.6851635044914084 1.9258424821433449
37 1 0.053548505356463896 0.02749836685152296 3.665949979500187
3 1 1.7230793677678884 0.04888437267096535 1.7916706945555958
16 1 0.007497123140338414 5.401323533082474 1.731599738647399
56 1 3.5689489274952226 5.375657764314874 5.421156885885914
14 1 1.842803744895099 5.357376430362089 0.06383608233983
17 1 3.641932948402548 3.5997014053841334 0.003236713366393767
51 1 1.787813688831212 3.5790489944227186 5.4162116686301465
5 1 3.5939335014930904 0.002777902157865 0.007119205605014067
4 1 10.76456215938211 1.87604284197009 1.8568402524150718
49 1 10.813423054411356 3.5162073710920176 3.649022903221786
42 1 5.557463577262808 1.7978446306036633 3.6390965112852767
12 1 7.296027574461053 1.8916875140040035 1.7779591578385623
23 1 9.087250862551977 3.6517090130923 1.7331878261757692
46 1 8.958187944896753 1.7308593041149898 3.6614237615361898
57 1 7.172840944324833 3.575931942279478 3.6999880364484876
21 1 7.114846583643383 3.7739382207553267 0.04677928210457576
59 1 8.89910882728915 3.6311351121313424 5.399331319023486
7 1 5.497024618691746 0.02352931904456003 1.8882402156848312
11 1 9.167147624805096 0.07576845951963895 1.8250480431190004
6 1 5.562720655533932 1.841697300906988 0.09795342466492327
47 1 9.175117930545703 0.15903107990890802 5.44730953322179
41 1 3.6262380134251426 10.889804161905838 3.5564788487663836
20 1 3.6516293312481105 5.500656913213336 1.9587119198065277
18 1 5.391981490656871 5.452790869053711 0.0529969351569869
50 1 1.6728253973198985 5.5130658921663445 3.5544710624168983
27 1 1.709245340272029 7.278173815117082 1.8527166637807677
32 1 3.5851859526459235 9.152021943896779 1.775453277430493
62 1 1.8466498106121474 9.041446047840502 3.71059983436025
65 1 3.6153219242937644 7.279895569800304 3.3993429910367277
28 1 0.12984677534347633 9.08683786423209 1.7767824652889994
29 1 3.5350943643852344 7.239319389837157 0.0867203773583603
43 1 5.391542467664728 10.852076173237883 5.427180077087328
64 1 0.04950735931437012 9.184828001695541 5.438627926132937
68 1 3.7122716024295594 9.077547220129443 5.390432854472652
67 1 5.319119190000931 7.313480150366471 5.368011349356221
54 1 5.481310388553964 5.497685970093112 3.7681206402160314
58 1 9.364544973763834 5.45395232034958 3.6657280056621877
61 1 10.883920948819288 7.339937914120989 3.6043780178767135
60 1 7.333700919269497 5.579869907844297 5.376165955388319
66 1 5.496897189435315 9.082559402765694 3.4998573348798168
31 1 5.463132829295469 7.2294035712216385 1.8076569582606856
24 1 7.328300594300742 5.509758753612932 1.9163869815196415
45 1 7.284320663110432 10.887144183327424 3.591815532782629
35 1 9.107650796983378 7.301591668478944 1.650545738841002
36 1 7.2771401422193245 9.1490441083623 1.7842385400865208
69 1 7.367683616814855 7.30036786671051 3.6559857137305176
70 1 9.053596953608805 9.161393920841036 3.5347708026945184
34 1 9.246765901484215 9.122654814003933 0.06068836139195842
9 1 7.33803455653388 10.846839956634103 0.036747996595448695
71 1 9.100222781661353 7.3100174423419135 5.432715974956223
2 1 1.8539727620202746 1.8334732271757161 10.875340362056777
74 1 1.883606860867456 1.711268534946581 7.2235818165521835
80 1 3.7714131665936446 1.819154033251052 9.056246937716937
87 1 1.7593693762124796 3.549909221702907 9.083543027524248
89 1 3.639353735423366 3.58680521781506 7.469858562110948
77 1 3.739646188606242 0.1069088436429055 7.386480964298365
92 1 3.5944526223865423 5.400266498491478 9.0636889537157
88 1 0.04598337196667108 5.3551174206150955 9.185508655710624
86 1 1.6814381576969204 5.370381883901839 7.27212728866483
73 1 0.04460108254218298 0.036729818354697234 7.2659670497622395
55 1 5.59838057292392 3.7242410461028617 5.548341569359288
13 1 10.770103269985812 3.559012409204104 10.877643726897285
78 1 5.516932651324344 1.9001026362371822 7.37429824196504
1 1 10.80905198662409 0.0653271665265185 10.890743784809471
10 1 9.01791634424274 1.7537858444832448 10.897838988187534
48 1 7.215280848492683 1.7601501500240058 5.647075646293236
76 1 10.780603902058417 1.8630969019123313 9.05170038858197
40 1 10.8566962027596 1.8571367929848055 5.527946525371934
85 1 10.835280149978596 3.6244516565828864 7.161394235194607
91 1 5.573840586743378 3.805200681432788 9.1133824688534
82 1 9.102282891980414 1.8962152431915624 7.253658766160367
84 1 7.256754553131162 1.7890862911658652 9.101643915601835
93 1 7.33231496727473 3.681165946362207 7.21158851135398
95 1 9.03645839695628 3.7325446547650465 9.073914552075015
79 1 5.569188542101054 0.126231483408693 9.256242008431323
83 1 9.005785256850325 0.05218951993918175 9.027882436662273
94 1 9.065246055302381 5.431940914003579 7.246848780562232
39 1 1.897423903111891 10.777399342780551 5.519397110418739
26 1 1.7768169468685309 9.037363776461731 10.80138425033229
52 1 0.022743383028133776 5.5513804296144755 5.494633598670942
63 1 1.8273192965408571 7.306081037201299 5.470014123875116
75 1 1.9525526192555316 10.808527574519928 9.113332152724446
98 1 1.8751337984315002 9.05613228897702 7.393070630237352
99 1 1.7734962712094264 7.226402013208255 8.989102213385248
101 1 3.614712931777375 7.104042057290644 7.2100083844629
104 1 3.8083321071032015 8.978653342893153 9.153071587947213
25 1 0.10269402282479194 7.287234360561728 10.83065374325987
102 1 5.32305805480124 9.104502108899995 7.273093690487348
90 1 5.368134929517129 5.496820357341552 7.3415717780518515
97 1 0.00482608982339805 7.242797662444741 7.366271906075262
103 1 5.428409801942216 7.181216891314846 9.205750277118605
22 1 9.035470329818834 5.451541824201365 10.767318689196783
81 1 7.163586254089922 10.734324183626514 7.221004641445557
30 1 5.492892420720745 8.96889168972002 10.860672429295564
33 1 7.367474827479215 7.198497456667136 10.851458250568449
72 1 7.259332342613125 9.093121545281583 5.465134996656783
96 1 7.286300340104024 5.466793479658705 8.957316460139648
100 1 10.779472955389823 9.133643368964695 9.07145090659383
105 1 7.225103102697179 7.254542495785926 7.164621662226667
106 1 9.053355144912667 9.230438437937142 7.147780444051815
107 1 9.166977792846344 7.211330906475646 9.071220221142651
108 1 7.455302757624683 8.986247827938104 9.129883756113374
116 1 3.684410537535448 1.7285803564223978 12.724226713134925
123 1 1.855799620368978 3.58685361540633 12.768438242667289
146 1 1.705817218078718 1.7063147774037226 14.369651233542118
161 1 3.544270339869786 3.6135740830690164 14.6189619725992
152 1 3.5164598343827667 1.7630764733452133 16.275282914358215
127 1 5.367803081538759 3.6851635044914084 12.828442482143345
145 1 0.053548505356463896 0.02749836685152296 14.568549979500187
111 1 1.7230793677678884 0.04888437267096535 12.694270694555595
124 1 0.007497123140338414 5.401323533082474 12.634199738647398
164 1 3.5689489274952226 5.375657764314874 16.323756885885913
122 1 1.842803744895099 5.357376430362089 10.966436082339829
125 1 3.641932948402548 3.5997014053841334 10.905836713366394
159 1 1.787813688831212 3.5790489944227186 16.318811668630147
113 1 3.5939335014930904 0.002777902157865 10.909719205605013
112 1 10.76456215938211 1.87604284197009 12.759440252415072
157 1 10.813423054411356 3.5162073710920176 14.551622903221785
150 1 5.557463577262808 1.7978446306036633 14.541696511285277
120 1 7.296027574461053 1.8916875140040035 12.680559157838562
131 1 9.087250862551977 3.6517090130923 12.635787826175768
154 1 8.958187944896753 1.7308593041149898 14.56402376153619
165 1 7.172840944324833 3.575931942279478 14.602588036448488
129 1 7.114846583643383 3.7739382207553267 10.949379282104575
167 1 8.89910882728915 3.6311351121313424 16.301931319023485
115 1 5.497024618691746 0.02352931904456003 12.790840215684831
119 1 9.167147624805096 0.07576845951963895 12.727648043119
114 1 5.562720655533932 1.841697300906988 11.000553424664924
155 1 9.175117930545703 0.15903107990890802 16.34990953322179
149 1 3.6262380134251426 10.889804161905838 14.459078848766383
128 1 3.6516293312481105 5.500656913213336 12.861311919806527
126 1 5.391981490656871 5.452790869053711 10.955596935156986
158 1 1.6728253973198985 5.5130658921663445 14.457071062416897
135 1 1.709245340272029 7.278173815117082 12.755316663780768
140 1 3.5851859526459235 9.152021943896779 12.678053277430493
170 1 1.8466498106121474 9.041446047840502 14.61319983436025
173 1 3.6153219242937644 7.279895569800304 14.301942991036727
136 1 0.12984677534347633 9.08683786423209 12.679382465288999
137 1 3.5350943643852344 7.239319389837157 10.98932037735836
151 1 5.391542467664728 10.852076173237883 16.329780077087328
172 1 0.04950735931437012 9.184828001695541 16.341227926132937
176 1 3.7122716024295594 9.077547220129443 16.293032854472653
175 1 5.319119190000931 7.313480150366471 16.270611349356223
162 1 5.481310388553964 5.497685970093112 14.67072064021603
166 1 9.364544973763834 5.45395232034958 14.568328005662188
169 1 10.883920948819288 7.339937914120989 14.506978017876714
168 1 7.333700919269497 5.579869907844297 16.27876595538832
174 1 5.496897189435315 9.082559402765694 14.402457334879816
139 1 5.463132829295469 7.2294035712216385 12.710256958260686
132 1 7.328300594300742 5.509758753612932 12.818986981519641
153 1 7.284320663110432 10.887144183327424 14.494415532782629
143 1 9.107650796983378 7.301591668478944 12.553145738841001
144 1 7.2771401422193245 9.1490441083623 12.686838540086521
177 1 7.367683616814855 7.30036786671051 14.558585713730517
178 1 9.053596953608805 9.161393920841036 14.437370802694518
142 1 9.246765901484215 9.122654814003933 10.963288361391959
117 1 7.33803455653388 10.846839956634103 10.939347996595448
179 1 9.100222781661353 7.3100174423419135 16.335315974956224
110 1 1.8539727620202746 1.8334732271757161 21.777940362056775
182 1 1.883606860867456 1.711268534946581 18.126181816552183
188 1 3.7714131665936446 1.819154033251052 19.958846937716935
195 1 1.7593693762124796 3.549909221702907 19.98614302752425
197 1 3.639353735423366 3.58680521781506 18.37245856211095
185 1 3.739646188606242 0.1069088436429055 18.289080964298364
200 1 3.5944526223865423 5.400266498491478 19.966288953715697
196 1 0.04598337196667108 5.3551174206150955 20.088108655710624
194 1 1.6814381576969204 5.370381883901839 18.17472728866483
181 1 0.04460108254218298 0.036729818354697234 18.16856704976224
163 1 5.59838057292392 3.7242410461028617 16.450941569359287
121 1 10.770103269985812 3.559012409204104 21.780243726897282
186 1 5.516932651324344 1.9001026362371822 18.27689824196504
109 1 10.80905198662409 0.0653271665265185 21.793343784809473
118 1 9.01791634424274 1.7537858444832448 21.800438988187533
156 1 7.215280848492683 1.7601501500240058 16.549675646293235
184 1 10.780603902058417 1.8630969019123313 19.95430038858197
148 1 10.8566962027596 1.8571367929848055 16.430546525371934
193 1 10.835280149978596 3.6244516565828864 18.063994235194606
199 1 5.573840586743378 3.805200681432788 20.0159824688534
190 1 9.102282891980414 1.8962152431915624 18.156258766160366
192 1 7.256754553131162 1.7890862911658652 20.004243915601833
201 1 7.33231496727473 3.681165946362207 18.11418851135398
203 1 9.03645839695628 3.7325446547650465 19.976514552075017
187 1 5.569188542101054 0.126231483408693 20.15884200843132
191 1 9.005785256850325 0.05218951993918175 19.930482436662274
202 1 9.065246055302381 5.431940914003579 18.14944878056223
147 1 1.897423903111891 10.777399342780551 16.421997110418737
134 1 1.7768169468685309 9.037363776461731 21.70398425033229
160 1 0.022743383028133776 5.5513804296144755 16.39723359867094
171 1 1.8273192965408571 7.306081037201299 16.372614123875117
183 1 1.9525526192555316 10.808527574519928 20.015932152724446
206 1 1.8751337984315002 9.05613228897702 18.295670630237353
207 1 1.7734962712094264 7.226402013208255 19.891702213385248
209 1 3.614712931777375 7.104042057290644 18.1126083844629
212 1 3.8083321071032015 8.978653342893153 20.055671587947213
133 1 0.10269402282479194 7.287234360561728 21.73325374325987
210 1 5.32305805480124 9.104502108899995 18.17569369048735
198 1 5.368134929517129 5.496820357341552 18.24417177805185
205 1 0.00482608982339805 7.242797662444741 18.268871906075262
211 1 5.428409801942216 7.181216891314846 20.108350277118603
130 1 9.035470329818834 5.451541824201365 21.669918689196784
189 1 7.163586254089922 10.734324183626514 18.123604641445556
138 1 5.492892420720745 8.96889168972002 21.76327242929556
141 1 7.367474827479215 7.198497456667136 21.75405825056845
180 1 7.259332342613125 9.093121545281583 16.367734996656782
204 1 7.286300340104024 5.466793479658705 19.859916460139647
208 1 10.779472955389823 9.133643368964695 19.97405090659383
213 1 7.225103102697179 7.254542495785926 18.067221662226665
214 1 9.053355144912667 9.230438437937142 18.050380444051815
215 1 9.166977792846344 7.211330906475646 19.973820221142653
216 1 7.455302757624683 8.986247827938104 20.032483756113372
224 1 3.684410537535448 1.7285803564223978 23.626826713134925
231 1 1.855799620368978 3.58685361540633 23.67103824266729
254 1 1.705817218078718 1.7063147774037226 25.272251233542118
269 1 3.544270339869786 3.6135740830690164 25.5215619725992
260 1 3.5164598343827667 1.7630764733452133 27.177882914358214
235 1 5.367803081538759 3.6851635044914084 23.731042482143344
253 1 0.053548505356463896 0.02749836685152296 25.471149979500186
219 1 1.7230793677678884 0.04888437267096535 23.596870694555594
232 1 0.007497123140338414 5.401323533082474 23.5367997386474
272 1 3.5689489274952226 5.375657764314874 27.226356885885913
230 1 1.842803744895099 5.357376430362089 21.86903608233983
233 1 3.641932948402548 3.5997014053841334 21.808436713366394
267 1 1.787813688831212 3.5790489944227186 27.221411668630147
221 1 3.5939335014930904 0.002777902157865 21.812319205605014
220 1 10.76456215938211 1.87604284197009 23.66204025241507
265 1 10.813423054411356 3.5162073710920176 25.454222903221783
258 1 5.557463577262808 1.7978446306036633 25.444296511285277
228 1 7.296027574461053 1.8916875140040035 23.583159157838562
239 1 9.087250862551977 3.6517090130923 23.538387826175768
262 1 8.958187944896753 1.7308593041149898 25.46662376153619
273 1 7.172840944324833 3.575931942279478 25.505188036448487
237 1 7.114846583643383 3.7739382207553267 21.851979282104576
275 1 8.89910882728915 3.6311351121313424 27.204531319023484
223 1 5.497024618691746 0.02352931904456003 23.69344021568483
227 1 9.167147624805096 0.07576845951963895 23.630248043119
222 1 5.562720655533932 1.841697300906988 21.90315342466492
263 1 9.175117930545703 0.15903107990890802 27.25250953322179
257 1 3.6262380134251426 10.889804161905838 25.36167884876638
236 1 3.6516293312481105 5.500656913213336 23.763911919806528
234 1 5.391981490656871 5.452790869053711 21.858196935156986
266 1 1.6728253973198985 5.5130658921663445 25.359671062416897
243 1 1.709245340272029 7.278173815117082 23.657916663780767
248 1 3.5851859526459235 9.152021943896779 23.580653277430493
278 1 1.8466498106121474 9.041446047840502 25.515799834360248
281 1 3.6153219242937644 7.279895569800304 25.20454299103673
244 1 0.12984677534347633 9.08683786423209 23.581982465289
245 1 3.5350943643852344 7.239319389837157 21.89192037735836
259 1 5.391542467664728 10.852076173237883 27.232380077087328
280 1 0.04950735931437012 9.184828001695541 27.243827926132937
284 1 3.7122716024295594 9.077547220129443 27.195632854472652
283 1 5.319119190000931 7.313480150366471 27.173211349356222
270 1 5.481310388553964 5.497685970093112 25.573320640216032
274 1 9.364544973763834 5.45395232034958 25.470928005662188
277 1 10.883920948819288 7.339937914120989 25.40957801787671
276 1 7.333700919269497 5.579869907844297 27.18136595538832
282 1 5.496897189435315 9.082559402765694 25.305057334879816
247 1 5.463132829295469 7.2294035712216385 23.612856958260686
240 1 7.328300594300742 5.509758753612932 23.72158698151964
261 1 7.284320663110432 10.887144183327424 25.39701553278263
251 1 9.107650796983378 7.301591668478944 23.455745738841003
252 1 7.2771401422193245 9.1490441083623 23.58943854008652
285 1 7.367683616814855 7.30036786671051 25.461185713730515
286 1 9.053596953608805 9.161393920841036 25.339970802694516
250 1 9.246765901484215 9.122654814003933 21.865888361391956
225 1 7.33803455653388 10.846839956634103 21.841947996595447
287 1 9.100222781661353 7.3100174423419135 27.237915974956223
218 1 1.8539727620202746 1.8334732271757161 32.680540362056774
290 1 1.883606860867456 1.711268534946581 29.028781816552183
296 1 3.7714131665936446 1.819154033251052 30.861446937716934
303 1 1.7593693762124796 3.549909221702907 30.88874302752425
305 1 3.639353735423366 3.58680521781506 29.27505856211095
293 1 3.739646188606242 0.1069088436429055 29.191680964298364
308 1 3.5944526223865423 5.400266498491478 30.868888953715697
304 1 0.04598337196667108 5.3551174206150955 30.990708655710623
302 1 1.6814381576969204 5.370381883901839 29.07732728866483
289 1 0.04460108254218298 0.036729818354697234 29.071167049762238
271 1 5.59838057292392 3.7242410461028617 27.353541569359287
229 1 10.770103269985812 3.559012409204104 32.68284372689728
294 1 5.516932651324344 1.9001026362371822 29.17949824196504
217 1 10.80905198662409 0.0653271665265185 32.69594378480947
226 1 9.01791634424274 1.7537858444832448 32.70303898818753
264 1 7.215280848492683 1.7601501500240058 27.452275646293234
292 1 10.780603902058417 1.8630969019123313 30.85690038858197
256 1 10.8566962027596 1.8571367929848055 27.333146525371934
301 1 10.835280149978596 3.6244516565828864 28.966594235194606
307 1 5.573840586743378 3.805200681432788 30.9185824688534
298 1 9.102282891980414 1.8962152431915624 29.058858766160366
300 1 7.256754553131162 1.7890862911658652 30.906843915601833
309 1 7.33231496727473 3.681165946362207 29.01678851135398
311 1 9.03645839695628 3.7325446547650465 30.879114552075016
295 1 5.569188542101054 0.126231483408693 31.06144200843132
299 1 9.005785256850325 0.05218951993918175 30.833082436662274
310 1 9.065246055302381 5.431940914003579 29.05204878056223
255 1 1.897423903111891 10.777399342780551 27.324597110418736
242 1 1.7768169468685309 9.037363776461731 32.60658425033229
268 1 0.022743383028133776 5.5513804296144755 27.29983359867094
279 1 1.8273192965408571 7.306081037201299 27.275214123875116
291 1 1.9525526192555316 10.808527574519928 30.918532152724445
314 1 1.8751337984315002 9.05613228897702 29.198270630237353
315 1 1.7734962712094264 7.226402013208255 30.794302213385247
317 1 3.614712931777375 7.104042057290644 29.0152083844629
320 1 3.8083321071032015 8.978653342893153 30.958271587947213
241 1 0.10269402282479194 7.287234360561728 32.63585374325987
318 1 5.32305805480124 9.104502108899995 29.07829369048735
306 1 5.368134929517129 5.496820357341552 29.14677177805185
313 1 0.00482608982339805 7.242797662444741 29.17147190607526
319 1 5.428409801942216 7.181216891314846 31.010950277118603
238 1 9.035470329818834 5.451541824201365 32.572518689196784
297 1 7.163586254089922 10.734324183626514 29.026204641445556
246 1 5.492892420720745 8.96889168972002 32.66587242929556
249 1 7.367474827479215 7.198497456667136 32.65665825056845
288 1 7.259332342613125 9.093121545281583 27.270334996656782
312 1 7.286300340104024 5.466793479658705 30.762516460139647
316 1 10.779472955389823 9.133643368964695 30.87665090659383
321 1 7.225103102697179 7.254542495785926 28.969821662226664
322 1 9.053355144912667 9.230438437937142 28.952980444051814
323 1 9.166977792846344 7.211330906475646 30.876420221142652
324 1 7.455302757624683 8.986247827938104 30.93508375611337
332 1 3.684410537535448 12.631180356422398 1.8216267131349257
339 1 1.855799620368978 14.48945361540633 1.8658382426672893
362 1 1.705817218078718 12.608914777403722 3.4670512335421195
377 1 3.544270339869786 14.516174083069016 3.7163619725992008
368 1 3.5164598343827667 12.665676473345213 5.372682914358216
343 1 5.367803081538759 14.587763504491408 1.9258424821433449
361 1 0.053548505356463896 10.930098366851523 3.665949979500187
327 1 1.7230793677678884 10.951484372670965 1.7916706945555958
340 1 0.007497123140338414 16.303923533082475 1.731599738647399
380 1 3.5689489274952226 16.278257764314873 5.421156885885914
338 1 1.842803744895099 16.259976430362087 0.06383608233983
341 1 3.641932948402548 14.502301405384133 0.003236713366393767
375 1 1.787813688831212 14.481648994422718 5.4162116686301465
329 1 3.5939335014930904 10.905377902157865 0.007119205605014067
328 1 10.76456215938211 12.77864284197009 1.8568402524150718
373 1 10.813423054411356 14.418807371092017 3.649022903221786
366 1 5.557463577262808 12.700444630603663 3.6390965112852767
336 1 7.296027574461053 12.794287514004003 1.7779591578385623
347 1 9.087250862551977 14.5543090130923 1.7331878261757692
370 1 8.958187944896753 12.63345930411499 3.6614237615361898
381 1 7.172840944324833 14.478531942279478 3.6999880364484876
345 1 7.114846583643383 14.676538220755326 0.04677928210457576
383 1 8.89910882728915 14.533735112131343 5.399331319023486
331 1 5.497024618691746 10.92612931904456 1.8882402156848312
335 1 9.167147624805096 10.978368459519638 1.8250480431190004
330 1 5.562720655533932 12.744297300906988 0.09795342466492327
371 1 9.175117930545703 11.061631079908908 5.44730953322179
365 1 3.6262380134251426 21.792404161905836 3.5564788487663836
344 1 3.6516293312481105 16.403256913213337 1.9587119198065277
342 1 5.391981490656871 16.35539086905371 0.0529969351569869
374 1 1.6728253973198985 16.415665892166345 3.5544710624168983
351 1 1.709245340272029 18.18077381511708 1.8527166637807677
356 1 3.5851859526459235 20.054621943896777 1.775453277430493
386 1 1.8466498106121474 19.9440460478405 3.71059983436025
389 1 3.6153219242937644 18.182495569800302 3.3993429910367277
352 1 0.12984677534347633 19.989437864232087 1.7767824652889994
353 1 3.5350943643852344 18.141919389837156 0.0867203773583603
367 1 5.391542467664728 21.754676173237883 5.427180077087328
388 1 0.04950735931437012 20.087428001695542 5.438627926132937
392 1 3.7122716024295594 19.980147220129442 5.390432854472652
391 1 5.319119190000931 18.21608015036647 5.368011349356221
378 1 5.481310388553964 16.400285970093112 3.7681206402160314
382 1 9.364544973763834 16.35655232034958 3.6657280056621877
385 1 10.883920948819288 18.242537914120987 3.6043780178767135
384 1 7.333700919269497 16.482469907844298 5.376165955388319
390 1 5.496897189435315 19.985159402765696 3.4998573348798168
355 1 5.463132829295469 18.132003571221638 1.8076569582606856
348 1 7.328300594300742 16.41235875361293 1.9163869815196415
369 1 7.284320663110432 21.78974418332742 3.591815532782629
359 1 9.107650796983378 18.204191668478945 1.650545738841002
360 1 7.2771401422193245 20.0516441083623 1.7842385400865208
393 1 7.367683616814855 18.20296786671051 3.6559857137305176
394 1 9.053596953608805 20.063993920841035 3.5347708026945184
358 1 9.246765901484215 20.025254814003933 0.06068836139195842
333 1 7.33803455653388 21.749439956634102 0.036747996595448695
395 1 9.100222781661353 18.212617442341912 5.432715974956223
326 1 1.8539727620202746 12.736073227175716 10.875340362056777
398 1 1.883606860867456 12.613868534946581 7.2235818165521835
404 1 3.7714131665936446 12.721754033251052 9.056246937716937
411 1 1.7593693762124796 14.452509221702908 9.083543027524248
413 1 3.639353735423366 14.48940521781506 7.469858562110948
401 1 3.739646188606242 11.009508843642905 7.386480964298365
416 1 3.5944526223865423 16.302866498491476 9.0636889537157
412 1 0.04598337196667108 16.257717420615094 9.185508655710624
410 1 1.6814381576969204 16.27298188390184 7.27212728866483
397 1 0.04460108254218298 10.939329818354697 7.2659670497622395
379 1 5.59838057292392 14.62684104610286 5.548341569359288
337 1 10.770103269985812 14.461612409204104 10.877643726897285
402 1 5.516932651324344 12.802702636237182 7.37429824196504
325 1 10.80905198662409 10.967927166526518 10.890743784809471
334 1 9.01791634424274 12.656385844483244 10.897838988187534
372 1 7.215280848492683 12.662750150024005 5.647075646293236
400 1 10.780603902058417 12.765696901912332 9.05170038858197
364 1 10.8566962027596 12.759736792984805 5.527946525371934
409 1 10.835280149978596 14.527051656582886 7.161394235194607
415 1 5.573840586743378 14.707800681432788 9.1133824688534
406 1 9.102282891980414 12.798815243191562 7.253658766160367
408 1 7.256754553131162 12.691686291165865 9.101643915601835
417 1 7.33231496727473 14.583765946362206 7.21158851135398
419 1 9.03645839695628 14.635144654765046 9.073914552075015
403 1 5.569188542101054 11.028831483408693 9.256242008431323
407 1 9.005785256850325 10.954789519939181 9.027882436662273
418 1 9.065246055302381 16.33454091400358 7.246848780562232
363 1 1.897423903111891 21.67999934278055 5.519397110418739
350 1 1.7768169468685309 19.93996377646173 10.80138425033229
376 1 0.022743383028133776 16.453980429614475 5.494633598670942
387 1 1.8273192965408571 18.2086810372013 5.470014123875116
399 1 1.9525526192555316 21.711127574519928 9.113332152724446
422 1 1.8751337984315002 19.958732288977018 7.393070630237352
423 1 1.7734962712094264 18.129002013208254 8.989102213385248
425 1 3.614712931777375 18.006642057290644 7.2100083844629
428 1 3.8083321071032015 19.881253342893153 9.153071587947213
349 1 0.10269402282479194 18.189834360561726 10.83065374325987
426 1 5.32305805480124 20.007102108899993 7.273093690487348
414 1 5.368134929517129 16.39942035734155 7.3415717780518515
421 1 0.00482608982339805 18.14539766244474 7.366271906075262
427 1 5.428409801942216 18.083816891314846 9.205750277118605
346 1 9.035470329818834 16.354141824201363 10.767318689196783
405 1 7.163586254089922 21.636924183626512 7.221004641445557
354 1 5.492892420720745 19.87149168972002 10.860672429295564
357 1 7.367474827479215 18.101097456667134 10.851458250568449
396 1 7.259332342613125 19.995721545281583 5.465134996656783
420 1 7.286300340104024 16.369393479658704 8.957316460139648
424 1 10.779472955389823 20.036243368964694 9.07145090659383
429 1 7.225103102697179 18.157142495785926 7.164621662226667
430 1 9.053355144912667 20.13303843793714 7.147780444051815
431 1 9.166977792846344 18.113930906475645 9.071220221142651
432 1 7.455302757624683 19.888847827938104 9.129883756113374
440 1 3.684410537535448 12.631180356422398 12.724226713134925
447 1 1.855799620368978 14.48945361540633 12.768438242667289
470 1 1.705817218078718 12.608914777403722 14.369651233542118
485 1 3.544270339869786 14.516174083069016 14.6189619725992
476 1 3.5164598343827667 12.665676473345213 16.275282914358215
451 1 5.367803081538759 14.587763504491408 12.828442482143345
469 1 0.053548505356463896 10.930098366851523 14.568549979500187
435 1 1.7230793677678884 10.951484372670965 12.694270694555595
448 1 0.007497123140338414 16.303923533082475 12.634199738647398
488 1 3.5689489274952226 16.278257764314873 16.323756885885913
446 1 1.842803744895099 16.259976430362087 10.966436082339829
449 1 3.641932948402548 14.502301405384133 10.905836713366394
483 1 1.787813688831212 14.481648994422718 16.318811668630147
437 1 3.5939335014930904 10.905377902157865 10.909719205605013
436 1 10.76456215938211 12.77864284197009 12.759440252415072
481 1 10.813423054411356 14.418807371092017 14.551622903221785
474 1 5.557463577262808 12.700444630603663 14.541696511285277
444 1 7.296027574461053 12.794287514004003 12.680559157838562
455 1 9.087250862551977 14.5543090130923 12.635787826175768
478 1 8.958187944896753 12.63345930411499 14.56402376153619
489 1 7.172840944324833 14.478531942279478 14.602588036448488
453 1 7.114846583643383 14.676538220755326 10.949379282104575
491 1 8.89910882728915 14.533735112131343 16.301931319023485
439 1 5.497024618691746 10.92612931904456 12.790840215684831
443 1 9.167147624805096 10.978368459519638 12.727648043119
438 1 5.562720655533932 12.744297300906988 11.000553424664924
479 1 9.175117930545703 11.061631079908908 16.34990953322179
473 1 3.6262380134251426 21.792404161905836 14.459078848766383
452 1 3.6516293312481105 16.403256913213337 12.861311919806527
450 1 5.391981490656871 16.35539086905371 10.955596935156986
482 1 1.6728253973198985 16.415665892166345 14.457071062416897
459 1 1.709245340272029 18.18077381511708 12.755316663780768
464 1 3.5851859526459235 20.054621943896777 12.678053277430493
494 1 1.8466498106121474 19.9440460478405 14.61319983436025
497 1 3.6153219242937644 18.182495569800302 14.301942991036727
460 1 0.12984677534347633 19.989437864232087 12.679382465288999
461 1 3.5350943643852344 18.141919389837156 10.98932037735836
475 1 5.391542467664728 21.754676173237883 16.329780077087328
496 1 0.04950735931437012 20.087428001695542 16.341227926132937
500 1 3.7122716024295594 19.980147220129442 16.293032854472653
499 1 5.319119190000931 18.21608015036647 16.270611349356223
486 1 5.481310388553964 16.400285970093112 14.67072064021603
490 1 9.364544973763834 16.35655232034958 14.568328005662188
493 1 10.883920948819288 18.242537914120987 14.506978017876714
492 1 7.333700919269497 16.482469907844298 16.27876595538832
498 1 5.496897189435315 19.985159402765696 14.402457334879816
463 1 5.463132829295469 18.132003571221638 12.710256958260686
456 1 7.328300594300742 16.41235875361293 12.818986981519641
477 1 7.284320663110432 21.78974418332742 14.494415532782629
467 1 9.107650796983378 18.204191668478945 12.553145738841001
468 1 7.2771401422193245 20.0516441083623 12.686838540086521
501 1 7.367683616814855 18.20296786671051 14.558585713730517
502 1 9.053596953608805 20.063993920841035 14.437370802694518
466 1 9.246765901484215 20.025254814003933 10.963288361391959
441 1 7.33803455653388 21.749439956634102 10.939347996595448
503 1 9.100222781661353 18.212617442341912 16.335315974956224
434 1 1.8539727620202746 12.736073227175716 21.777940362056775
506 1 1.883606860867456 12.613868534946581 18.126181816552183
512 1 3.7714131665936446 12.721754033251052 19.958846937716935
519 1 1.7593693762124796 14.452509221702908 19.98614302752425
521 1 3.639353735423366 14.48940521781506 18.37245856211095
509 1 3.739646188606242 11.009508843642905 18.289080964298364
524 1 3.5944526223865423 16.302866498491476 19.966288953715697
520 1 0.04598337196667108 16.257717420615094 20.088108655710624
518 1 1.6814381576969204 16.27298188390184 18.17472728866483
505 1 0.04460108254218298 10.939329818354697 18.16856704976224
487 1 5.59838057292392 14.62684104610286 16.450941569359287
445 1 10.770103269985812 14.461612409204104 21.780243726897282
510 1 5.516932651324344 12.802702636237182 18.27689824196504
433 1 10.80905198662409 10.967927166526518 21.793343784809473
442 1 9.01791634424274 12.656385844483244 21.800438988187533
480 1 7.215280848492683 12.662750150024005 16.549675646293235
508 1 10.780603902058417 12.765696901912332 19.95430038858197
472 1 10.8566962027596 12.759736792984805 16.430546525371934
517 1 10.835280149978596 14.527051656582886 18.063994235194606
523 1 5.573840586743378 14.707800681432788 20.0159824688534
514 1 9.102282891980414 12.798815243191562 18.156258766160366
516 1 7.256754553131162 12.691686291165865 20.004243915601833
525 1 7.33231496727473 14.583765946362206 18.11418851135398
527 1 9.03645839695628 14.635144654765046 19.976514552075017
511 1 5.569188542101054 11.028831483408693 20.15884200843132
515 1 9.005785256850325 10.954789519939181 19.930482436662274
526 1 9.065246055302381 16.33454091400358 18.14944878056223
471 1 1.897423903111891 21.67999934278055 16.421997110418737
458 1 1.7768169468685309 19.93996377646173 21.70398425033229
484 1 0.022743383028133776 16.453980429614475 16.39723359867094
495 1 1.8273192965408571 18.2086810372013 16.372614123875117
507 1 1.9525526192555316 21.711127574519928 20.015932152724446
530 1 1.8751337984315002 19.958732288977018 18.295670630237353
531 1 1.7734962712094264 18.129002013208254 19.891702213385248
533 1 3.614712931777375 18.006642057290644 18.1126083844629
536 1 3.8083321071032015 19.881253342893153 20.055671587947213
457 1 0.10269402282479194 18.189834360561726 21.73325374325987
534 1 5.32305805480124 20.007102108899993 18.17569369048735
522 1 5.368134929517129 16.39942035734155 18.24417177805185
529 1 0.00482608982339805 18.14539766244474 18.268871906075262
535 1 5.428409801942216 18.083816891314846 20.108350277118603
454 1 9.035470329818834 16.354141824201363 21.669918689196784
513 1 7.163586254089922 21.636924183626512 18.123604641445556
462 1 5.492892420720745 19.87149168972002 21.76327242929556
465 1 7.367474827479215 18.101097456667134 21.75405825056845
504 1 7.259332342613125 19.995721545281583 16.367734996656782
528 1 7.286300340104024 16.369393479658704 19.859916460139647
532 1 10.779472955389823 20.036243368964694 19.97405090659383
537 1 7.225103102697179 18.157142495785926 18.067221662226665
538 1 9.053355144912667 20.13303843793714 18.050380444051815
539 1 9.166977792846344 18.113930906475645 19.973820221142653
540 1 7.455302757624683 19.888847827938104 20.032483756113372
548 1 3.684410537535448 12.631180356422398 23.626826713134925
555 1 1.855799620368978 14.48945361540633 23.67103824266729
578 1 1.705817218078718 12.608914777403722 25.272251233542118
593 1 3.544270339869786 14.516174083069016 25.5215619725992
584 1 3.5164598343827667 12.665676473345213 27.177882914358214
559 1 5.367803081538759 14.587763504491408 23.731042482143344
577 1 0.053548505356463896 10.930098366851523 25.471149979500186
543 1 1.7230793677678884 10.951484372670965 23.596870694555594
556 1 0.007497123140338414 16.303923533082475 23.5367997386474
596 1 3.5689489274952226 16.278257764314873 27.226356885885913
554 1 1.842803744895099 16.259976430362087 21.86903608233983
557 1 3.641932948402548 14.502301405384133 21.808436713366394
591 1 1.787813688831212 14.481648994422718 27.221411668630147
545 1 3.5939335014930904 10.905377902157865 21.812319205605014
544 1 10.76456215938211 12.77864284197009 23.66204025241507
589 1 10.813423054411356 14.418807371092017 25.454222903221783
582 1 5.557463577262808 12.700444630603663 25.444296511285277
552 1 7.296027574461053 12.794287514004003 23.583159157838562
563 1 9.087250862551977 14.5543090130923 23.538387826175768
586 1 8.958187944896753 12.63345930411499 25.46662376153619
597 1 7.172840944324833 14.478531942279478 25.505188036448487
561 1 7.114846583643383 14.676538220755326 21.851979282104576
599 1 8.89910882728915 14.533735112131343 27.204531319023484
547 1 5.497024618691746 10.92612931904456 23.69344021568483
551 1 9.167147624805096 10.978368459519638 23.630248043119
546 1 5.562720655533932 12.744297300906988 21.90315342466492
587 1 9.175117930545703 11.061631079908908 27.25250953322179
581 1 3.6262380134251426 21.792404161905836 25.36167884876638
560 1 3.6516293312481105 16.403256913213337 23.763911919806528
558 1 5.391981490656871 16.35539086905371 21.858196935156986
590 1 1.6728253973198985 16.415665892166345 25.359671062416897
567 1 1.709245340272029 18.18077381511708 23.657916663780767
572 1 3.5851859526459235 20.054621943896777 23.580653277430493
602 1 1.8466498106121474 19.9440460478405 25.515799834360248
605 1 3.6153219242937644 18.182495569800302 25.20454299103673
568 1 0.12984677534347633 19.989437864232087 23.581982465289
569 1 3.5350943643852344 18.141919389837156 21.89192037735836
583 1 5.391542467664728 21.754676173237883 27.232380077087328
604 1 0.04950735931437012 20.087428001695542 27.243827926132937
608 1 3.7122716024295594 19.980147220129442 27.195632854472652
607 1 5.319119190000931 18.21608015036647 27.173211349356222
594 1 5.481310388553964 16.400285970093112 25.573320640216032
598 1 9.364544973763834 16.35655232034958 25.470928005662188
601 1 10.883920948819288 18.242537914120987 25.40957801787671
600 1 7.333700919269497 16.482469907844298 27.18136595538832
606 1 5.496897189435315 19.985159402765696 25.305057334879816
571 1 5.463132829295469 18.132003571221638 23.612856958260686
564 1 7.328300594300742 16.41235875361293 23.72158698151964
585 1 7.284320663110432 21.78974418332742 25.39701553278263
575 1 9.107650796983378 18.204191668478945 23.455745738841003
576 1 7.2771401422193245 20.0516441083623 23.58943854008652
609 1 7.367683616814855 18.20296786671051 25.461185713730515
610 1 9.053596953608805 20.063993920841035 25.339970802694516
574 1 9.246765901484215 20.025254814003933 21.865888361391956
549 1 7.33803455653388 21.749439956634102 21.841947996595447
611 1 9.100222781661353 18.212617442341912 27.237915974956223
542 1 1.8539727620202746 12.736073227175716 32.680540362056774
614 1 1.883606860867456 12.613868534946581 29.028781816552183
620 1 3.7714131665936446 12.721754033251052 30.861446937716934
627 1 1.7593693762124796 14.452509221702908 30.88874302752425
629 1 3.639353735423366 14.48940521781506 29.27505856211095
617 1 3.739646188606242 11.009508843642905 29.191680964298364
632 1 3.5944526223865423 16.302866498491476 30.868888953715697
628 1 0.04598337196667108 16.257717420615094 30.990708655710623
626 1 1.6814381576969204 16.27298188390184 29.07732728866483
613 1 0.04460108254218298 10.939329818354697 29.071167049762238
595 1 5.59838057292392 14.62684104610286 27.353541569359287
553 1 10.770103269985812 14.461612409204104 32.68284372689728
618 1 5.516932651324344 12.802702636237182 29.17949824196504
541 1 10.80905198662409 10.967927166526518 32.69594378480947
550 1 9.01791634424274 12.656385844483244 32.70303898818753
588 1 7.215280848492683 12.662750150024005 27.452275646293234
616 1 10.780603902058417 12.765696901912332 30.85690038858197
580 1 10.8566962027596 12.759736792984805 27.333146525371934
625 1 10.835280149978596 14.527051656582886 28.966594235194606
631 1 5.573840586743378 14.707800681432788 30.9185824688534
622 1 9.102282891980414 12.798815243191562 29.058858766160366
624 1 7.256754553131162 12.691686291165865 30.906843915601833
633 1 7.33231496727473 14.583765946362206 29.01678851135398
635 1 9.03645839695628 14.635144654765046 30.879114552075016
619 1 5.569188542101054 11.028831483408693 31.06144200843132
623 1 9.005785256850325 10.954789519939181 30.833082436662274
634 1 9.065246055302381 16.33454091400358 29.05204878056223
579 1 1.897423903111891 21.67999934278055 27.324597110418736
566 1 1.7768169468685309 19.93996377646173 32.60658425033229
592 1 0.022743383028133776 16.453980429614475 27.29983359867094
603 1 1.8273192965408571 18.2086810372013 27.275214123875116
615 1 1.9525526192555316 21.711127574519928 30.918532152724445
638 1 1.8751337984315002 19.958732288977018 29.198270630237353
639 1 1.7734962712094264 18.129002013208254 30.794302213385247
641 1 3.614712931777375 18.006642057290644 29.0152083844629
644 1 3.8083321071032015 19.881253342893153 30.958271587947213
565 1 0.10269402282479194 18.189834360561726 32.63585374325987
642 1 5.32305805480124 20.007102108899993 29.07829369048735
630 1 5.368134929517129 16.39942035734155 29.14677177805185
637 1 0.00482608982339805 18.14539766244474 29.17147190607526
643 1 5.428409801942216 18.083816891314846 31.010950277118603
562 1 9.035470329818834 16.354141824201363 32.572518689196784
621 1 7.163586254089922 21.636924183626512 29.026204641445556
570 1 5.492892420720745 19.87149168972002 32.66587242929556
573 1 7.367474827479215 18.101097456667134 32.65665825056845
612 1 7.259332342613125 19.995721545281583 27.270334996656782
636 1 7.286300340104024 16.369393479658704 30.762516460139647
640 1 10.779472955389823 20.036243368964694 30.87665090659383
645 1 7.225103102697179 18.157142495785926 28.969821662226664
646 1 9.053355144912667 20.13303843793714 28.952980444051814
647 1 9.166977792846344 18.113930906475645 30.876420221142652
648 1 7.455302757624683 19.888847827938104 30.93508375611337
656 1 3.684410537535448 23.533780356422398 1.8216267131349257
663 1 1.855799620368978 25.39205361540633 1.8658382426672893
686 1 1.705817218078718 23.511514777403722 3.4670512335421195
701 1 3.544270339869786 25.418774083069017 3.7163619725992008
692 1 3.5164598343827667 23.56827647334521 5.372682914358216
667 1 5.367803081538759 25.49036350449141 1.9258424821433449
685 1 0.053548505356463896 21.832698366851524 3.665949979500187
651 1 1.7230793677678884 21.854084372670965 1.7916706945555958
664 1 0.007497123140338414 27.206523533082475 1.731599738647399
704 1 3.5689489274952226 27.180857764314872 5.421156885885914
662 1 1.842803744895099 27.162576430362087 0.06383608233983
665 1 3.641932948402548 25.404901405384134 0.003236713366393767
699 1 1.787813688831212 25.38424899442272 5.4162116686301465
653 1 3.5939335014930904 21.807977902157866 0.007119205605014067
652 1 10.76456215938211 23.68124284197009 1.8568402524150718
697 1 10.813423054411356 25.321407371092018 3.649022903221786
690 1 5.557463577262808 23.603044630603662 3.6390965112852767
660 1 7.296027574461053 23.696887514004004 1.7779591578385623
671 1 9.087250862551977 25.4569090130923 1.7331878261757692
694 1 8.958187944896753 23.53605930411499 3.6614237615361898
705 1 7.172840944324833 25.381131942279477 3.6999880364484876
669 1 7.114846583643383 25.579138220755326 0.04677928210457576
707 1 8.89910882728915 25.436335112131342 5.399331319023486
655 1 5.497024618691746 21.82872931904456 1.8882402156848312
659 1 9.167147624805096 21.88096845951964 1.8250480431190004
654 1 5.562720655533932 23.646897300906986 0.09795342466492327
695 1 9.175117930545703 21.964231079908906 5.44730953322179
689 1 3.6262380134251426 32.695004161905835 3.5564788487663836
668 1 3.6516293312481105 27.305856913213336 1.9587119198065277
666 1 5.391981490656871 27.25799086905371 0.0529969351569869
698 1 1.6728253973198985 27.318265892166345 3.5544710624168983
675 1 1.709245340272029 29.08337381511708 1.8527166637807677
680 1 3.5851859526459235 30.957221943896776 1.775453277430493
710 1 1.8466498106121474 30.8466460478405 3.71059983436025
713 1 3.6153219242937644 29.085095569800302 3.3993429910367277
676 1 0.12984677534347633 30.892037864232087 1.7767824652889994
677 1 3.5350943643852344 29.044519389837156 0.0867203773583603
691 1 5.391542467664728 32.65727617323788 5.427180077087328
712 1 0.04950735931437012 30.990028001695542 5.438627926132937
716 1 3.7122716024295594 30.882747220129442 5.390432854472652
715 1 5.319119190000931 29.11868015036647 5.368011349356221
702 1 5.481310388553964 27.30288597009311 3.7681206402160314
706 1 9.364544973763834 27.25915232034958 3.6657280056621877
709 1 10.883920948819288 29.145137914120987 3.6043780178767135
708 1 7.333700919269497 27.385069907844297 5.376165955388319
714 1 5.496897189435315 30.887759402765695 3.4998573348798168
679 1 5.463132829295469 29.034603571221638 1.8076569582606856
672 1 7.328300594300742 27.31495875361293 1.9163869815196415
693 1 7.284320663110432 32.69234418332742 3.591815532782629
683 1 9.107650796983378 29.106791668478945 1.650545738841002
684 1 7.2771401422193245 30.9542441083623 1.7842385400865208
717 1 7.367683616814855 29.10556786671051 3.6559857137305176
718 1 9.053596953608805 30.966593920841035 3.5347708026945184
682 1 9.246765901484215 30.927854814003933 0.06068836139195842
657 1 7.33803455653388 32.6520399566341 0.036747996595448695
719 1 9.100222781661353 29.115217442341912 5.432715974956223
650 1 1.8539727620202746 23.638673227175715 10.875340362056777
722 1 1.883606860867456 23.51646853494658 7.2235818165521835
728 1 3.7714131665936446 23.624354033251052 9.056246937716937
735 1 1.7593693762124796 25.355109221702907 9.083543027524248
737 1 3.639353735423366 25.392005217815058 7.469858562110948
725 1 3.739646188606242 21.912108843642905 7.386480964298365
740 1 3.5944526223865423 27.205466498491475 9.0636889537157
736 1 0.04598337196667108 27.160317420615094 9.185508655710624
734 1 1.6814381576969204 27.175581883901838 7.27212728866483
721 1 0.04460108254218298 21.841929818354696 7.2659670497622395
703 1 5.59838057292392 25.52944104610286 5.548341569359288
661 1 10.770103269985812 25.364212409204104 10.877643726897285
726 1 5.516932651324344 23.70530263623718 7.37429824196504
649 1 10.80905198662409 21.870527166526518 10.890743784809471
658 1 9.01791634424274 23.558985844483246 10.897838988187534
696 1 7.215280848492683 23.565350150024006 5.647075646293236
724 1 10.780603902058417 23.66829690191233 9.05170038858197
688 1 10.8566962027596 23.662336792984803 5.527946525371934
733 1 10.835280149978596 25.429651656582884 7.161394235194607
739 1 5.573840586743378 25.610400681432786 9.1133824688534
730 1 9.102282891980414 23.701415243191562 7.253658766160367
732 1 7.256754553131162 23.594286291165865 9.101643915601835
741 1 7.33231496727473 25.486365946362206 7.21158851135398
743 1 9.03645839695628 25.537744654765046 9.073914552075015
727 1 5.569188542101054 21.93143148340869 9.256242008431323
731 1 9.005785256850325 21.857389519939183 9.027882436662273
742 1 9.065246055302381 27.23714091400358 7.246848780562232
687 1 1.897423903111891 32.582599342780554 5.519397110418739
674 1 1.7768169468685309 30.84256377646173 10.80138425033229
700 1 0.022743383028133776 27.356580429614475 5.494633598670942
711 1 1.8273192965408571 29.111281037201298 5.470014123875116
723 1 1.9525526192555316 32.61372757451993 9.113332152724446
746 1 1.8751337984315002 30.861332288977017 7.393070630237352
747 1 1.7734962712094264 29.031602013208254 8.989102213385248
749 1 3.614712931777375 28.909242057290644 7.2100083844629
752 1 3.8083321071032015 30.783853342893153 9.153071587947213
673 1 0.10269402282479194 29.092434360561725 10.83065374325987
750 1 5.32305805480124 30.909702108899992 7.273093690487348
738 1 5.368134929517129 27.30202035734155 7.3415717780518515
745 1 0.00482608982339805 29.04799766244474 7.366271906075262
751 1 5.428409801942216 28.986416891314846 9.205750277118605
670 1 9.035470329818834 27.256741824201363 10.767318689196783
729 1 7.163586254089922 32.53952418362651 7.221004641445557
678 1 5.492892420720745 30.77409168972002 10.860672429295564
681 1 7.367474827479215 29.003697456667133 10.851458250568449
720 1 7.259332342613125 30.898321545281583 5.465134996656783
744 1 7.286300340104024 27.271993479658704 8.957316460139648
748 1 10.779472955389823 30.938843368964694 9.07145090659383
753 1 7.225103102697179 29.059742495785926 7.164621662226667
754 1 9.053355144912667 31.03563843793714 7.147780444051815
755 1 9.166977792846344 29.016530906475644 9.071220221142651
756 1 7.455302757624683 30.791447827938104 9.129883756113374
764 1 3.684410537535448 23.533780356422398 12.724226713134925
771 1 1.855799620368978 25.39205361540633 12.768438242667289
794 1 1.705817218078718 23.511514777403722 14.369651233542118
809 1 3.544270339869786 25.418774083069017 14.6189619725992
800 1 3.5164598343827667 23.56827647334521 16.275282914358215
775 1 5.367803081538759 25.49036350449141 12.828442482143345
793 1 0.053548505356463896 21.832698366851524 14.568549979500187
759 1 1.7230793677678884 21.854084372670965 12.694270694555595
772 1 0.007497123140338414 27.206523533082475 12.634199738647398
812 1 3.5689489274952226 27.180857764314872 16.323756885885913
770 1 1.842803744895099 27.162576430362087 10.966436082339829
773 1 3.641932948402548 25.404901405384134 10.905836713366394
807 1 1.787813688831212 25.38424899442272 16.318811668630147
761 1 3.5939335014930904 21.807977902157866 10.909719205605013
760 1 10.76456215938211 23.68124284197009 12.759440252415072
805 1 10.813423054411356 25.321407371092018 14.551622903221785
798 1 5.557463577262808 23.603044630603662 14.541696511285277
768 1 7.296027574461053 23.696887514004004 12.680559157838562
779 1 9.087250862551977 25.4569090130923 12.635787826175768
802 1 8.958187944896753 23.53605930411499 14.56402376153619
813 1 7.172840944324833 25.381131942279477 14.602588036448488
777 1 7.114846583643383 25.579138220755326 10.949379282104575
815 1 8.89910882728915 25.436335112131342 16.301931319023485
763 1 5.497024618691746 21.82872931904456 12.790840215684831
767 1 9.167147624805096 21.88096845951964 12.727648043119
762 1 5.562720655533932 23.646897300906986 11.000553424664924
803 1 9.175117930545703 21.964231079908906 16.34990953322179
797 1 3.6262380134251426 32.695004161905835 14.459078848766383
776 1 3.6516293312481105 27.305856913213336 12.861311919806527
774 1 5.391981490656871 27.25799086905371 10.955596935156986
806 1 1.6728253973198985 27.318265892166345 14.457071062416897
783 1 1.709245340272029 29.08337381511708 12.755316663780768
788 1 3.5851859526459235 30.957221943896776 12.678053277430493
818 1 1.8466498106121474 30.8466460478405 14.61319983436025
821 1 3.6153219242937644 29.085095569800302 14.301942991036727
784 1 0.12984677534347633 30.892037864232087 12.679382465288999
785 1 3.5350943643852344 29.044519389837156 10.98932037735836
799 1 5.391542467664728 32.65727617323788 16.329780077087328
820 1 0.04950735931437012 30.990028001695542 16.341227926132937
824 1 3.7122716024295594 30.882747220129442 16.293032854472653
823 1 5.319119190000931 29.11868015036647 16.270611349356223
810 1 5.481310388553964 27.30288597009311 14.67072064021603
814 1 9.364544973763834 27.25915232034958 14.568328005662188
817 1 10.883920948819288 29.145137914120987 14.506978017876714
816 1 7.333700919269497 27.385069907844297 16.27876595538832
822 1 5.496897189435315 30.887759402765695 14.402457334879816
787 1 5.463132829295469 29.034603571221638 12.710256958260686
780 1 7.328300594300742 27.31495875361293 12.818986981519641
801 1 7.284320663110432 32.69234418332742 14.494415532782629
791 1 9.107650796983378 29.106791668478945 12.553145738841001
792 1 7.2771401422193245 30.9542441083623 12.686838540086521
825 1 7.367683616814855 29.10556786671051 14.558585713730517
826 1 9.053596953608805 30.966593920841035 14.437370802694518
790 1 9.246765901484215 30.927854814003933 10.963288361391959
765 1 7.33803455653388 32.6520399566341 10.939347996595448
827 1 9.100222781661353 29.115217442341912 16.335315974956224
758 1 1.8539727620202746 23.638673227175715 21.777940362056775
830 1 1.883606860867456 23.51646853494658 18.126181816552183
836 1 3.7714131665936446 23.624354033251052 19.958846937716935
843 1 1.7593693762124796 25.355109221702907 19.98614302752425
845 1 3.639353735423366 25.392005217815058 18.37245856211095
833 1 3.739646188606242 21.912108843642905 18.289080964298364
848 1 3.5944526223865423 27.205466498491475 19.966288953715697
844 1 0.04598337196667108 27.160317420615094 20.088108655710624
842 1 1.6814381576969204 27.175581883901838 18.17472728866483
829 1 0.04460108254218298 21.841929818354696 18.16856704976224
811 1 5.59838057292392 25.52944104610286 16.450941569359287
769 1 10.770103269985812 25.364212409204104 21.780243726897282
834 1 5.516932651324344 23.70530263623718 18.27689824196504
757 1 10.80905198662409 21.870527166526518 21.793343784809473
766 1 9.01791634424274 23.558985844483246 21.800438988187533
804 1 7.215280848492683 23.565350150024006 16.549675646293235
832 1 10.780603902058417 23.66829690191233 19.95430038858197
796 1 10.8566962027596 23.662336792984803 16.430546525371934
841 1 10.835280149978596 25.429651656582884 18.063994235194606
847 1 5.573840586743378 25.610400681432786 20.0159824688534
838 1 9.102282891980414 23.701415243191562 18.156258766160366
840 1 7.256754553131162 23.594286291165865 20.004243915601833
849 1 7.33231496727473 25.486365946362206 18.11418851135398
851 1 9.03645839695628 25.537744654765046 19.976514552075017
835 1 5.569188542101054 21.93143148340869 20.15884200843132
839 1 9.005785256850325 21.857389519939183 19.930482436662274
850 1 9.065246055302381 27.23714091400358 18.14944878056223
795 1 1.897423903111891 32.582599342780554 16.421997110418737
782 1 1.7768169468685309 30.84256377646173 21.70398425033229
808 1 0.022743383028133776 27.356580429614475 16.39723359867094
819 1 1.8273192965408571 29.111281037201298 16.372614123875117
831 1 1.9525526192555316 32.61372757451993 20.015932152724446
854 1 1.8751337984315002 30.861332288977017 18.295670630237353
855 1 1.7734962712094264 29.031602013208254 19.891702213385248
857 1 3.614712931777375 28.909242057290644 18.1126083844629
860 1 3.8083321071032015 30.783853342893153 20.055671587947213
781 1 0.10269402282479194 29.092434360561725 21.73325374325987
858 1 5.32305805480124 30.909702108899992 18.17569369048735
846 1 5.368134929517129 27.30202035734155 18.24417177805185
853 1 0.00482608982339805 29.04799766244474 18.268871906075262
859 1 5.428409801942216 28.986416891314846 20.108350277118603
778 1 9.035470329818834 27.256741824201363 21.669918689196784
837 1 7.163586254089922 32.53952418362651 18.123604641445556
786 1 5.492892420720745 30.77409168972002 21.76327242929556
789 1 7.367474827479215 29.003697456667133 21.75405825056845
828 1 7.259332342613125 30.898321545281583 16.367734996656782
852 1 7.286300340104024 27.271993479658704 19.859916460139647
856 1 10.779472955389823 30.938843368964694 19.97405090659383
861 1 7.225103102697179 29.059742495785926 18.067221662226665
862 1 9.053355144912667 31.03563843793714 18.050380444051815
863 1 9.166977792846344 29.016530906475644 19.973820221142653
864 1 7.455302757624683 30.791447827938104 20.032483756113372
872 1 3.684410537535448 23.533780356422398 23.626826713134925
879 1 1.855799620368978 25.39205361540633 23.67103824266729
902 1 1.705817218078718 23.511514777403722 25.272251233542118
917 1 3.544270339869786 25.418774083069017 25.5215619725992
908 1 3.5164598343827667 23.56827647334521 27.177882914358214
883 1 5.367803081538759 25.49036350449141 23.731042482143344
901 1 0.053548505356463896 21.832698366851524 25.471149979500186
867 1 1.7230793677678884 21.854084372670965 23.596870694555594
880 1 0.007497123140338414 27.206523533082475 23.5367997386474
920 1 3.5689489274952226 27.180857764314872 27.226356885885913
878 1 1.842803744895099 27.162576430362087 21.86903608233983
881 1 3.641932948402548 25.404901405384134 21.808436713366394
915 1 1.787813688831212 25.38424899442272 27.221411668630147
869 1 3.5939335014930904 21.807977902157866 21.812319205605014
868 1 10.76456215938211 23.68124284197009 23.66204025241507
913 1 10.813423054411356 25.321407371092018 25.454222903221783
906 1 5.557463577262808 23.603044630603662 25.444296511285277
876 1 7.296027574461053 23.696887514004004 23.583159157838562
887 1 9.087250862551977 25.4569090130923 23.538387826175768
910 1 8.958187944896753 23.53605930411499 25.46662376153619
921 1 7.172840944324833 25.381131942279477 25.505188036448487
885 1 7.114846583643383 25.579138220755326 21.851979282104576
923 1 8.89910882728915 25.436335112131342 27.204531319023484
871 1 5.497024618691746 21.82872931904456 23.69344021568483
875 1 9.167147624805096 21.88096845951964 23.630248043119
870 1 5.562720655533932 23.646897300906986 21.90315342466492
911 1 9.175117930545703 21.964231079908906 27.25250953322179
905 1 3.6262380134251426 32.695004161905835 25.36167884876638
884 1 3.6516293312481105 27.305856913213336 23.763911919806528
882 1 5.391981490656871 27.25799086905371 21.858196935156986
914 1 1.6728253973198985 27.318265892166345 25.359671062416897
891 1 1.709245340272029 29.08337381511708 23.657916663780767
896 1 3.5851859526459235 30.957221943896776 23.580653277430493
926 1 1.8466498106121474 30.8466460478405 25.515799834360248
929 1 3.6153219242937644 29.085095569800302 25.20454299103673
892 1 0.12984677534347633 30.892037864232087 23.581982465289
893 1 3.5350943643852344 29.044519389837156 21.89192037735836
907 1 5.391542467664728 32.65727617323788 27.232380077087328
928 1 0.04950735931437012 30.990028001695542 27.243827926132937
932 1 3.7122716024295594 30.882747220129442 27.195632854472652
931 1 5.319119190000931 29.11868015036647 27.173211349356222
918 1 5.481310388553964 27.30288597009311 25.573320640216032
922 1 9.364544973763834 27.25915232034958 25.470928005662188
925 1 10.883920948819288 29.145137914120987 25.40957801787671
924 1 7.333700919269497 27.385069907844297 27.18136595538832
930 1 5.496897189435315 30.887759402765695 25.305057334879816
895 1 5.463132829295469 29.034603571221638 23.612856958260686
888 1 7.328300594300742 27.31495875361293 23.72158698151964
909 1 7.284320663110432 32.69234418332742 25.39701553278263
899 1 9.107650796983378 29.106791668478945 23.455745738841003
900 1 7.2771401422193245 30.9542441083623 23.58943854008652
933 1 7.367683616814855 29.10556786671051 25.461185713730515
934 1 9.053596953608805 30.966593920841035 25.339970802694516
898 1 9.246765901484215 30.927854814003933 21.865888361391956
873 1 7.33803455653388 32.6520399566341 21.841947996595447
935 1 9.100222781661353 29.115217442341912 27.237915974956223
866 1 1.8539727620202746 23.638673227175715 32.680540362056774
938 1 1.883606860867456 23.51646853494658 29.028781816552183
944 1 3.7714131665936446 23.624354033251052 30.861446937716934
951 1 1.7593693762124796 25.355109221702907 30.88874302752425
953 1 3.639353735423366 25.392005217815058 29.27505856211095
941 1 3.739646188606242 21.912108843642905 29.191680964298364
956 1 3.5944526223865423 27.205466498491475 30.868888953715697
952 1 0.04598337196667108 27.160317420615094 30.990708655710623
950 1 1.6814381576969204 27.175581883901838 29.07732728866483
937 1 0.04460108254218298 21.841929818354696 29.071167049762238
919 1 5.59838057292392 25.52944104610286 27.353541569359287
877 1 10.770103269985812 25.364212409204104 32.68284372689728
942 1 5.516932651324344 23.70530263623718 29.17949824196504
865 1 10.80905198662409 21.870527166526518 32.69594378480947
874 1 9.01791634424274 23.558985844483246 32.70303898818753
912 1 7.215280848492683 23.565350150024006 27.452275646293234
940 1 10.780603902058417 23.66829690191233 30.85690038858197
904 1 10.8566962027596 23.662336792984803 27.333146525371934
949 1 10.835280149978596 25.429651656582884 28.966594235194606
955 1 5.573840586743378 25.610400681432786 30.9185824688534
946 1 9.102282891980414 23.701415243191562 29.058858766160366
948 1 7.256754553131162 23.594286291165865 30.906843915601833
957 1 7.33231496727473 25.486365946362206 29.01678851135398
959 1 9.03645839695628 25.537744654765046 30.879114552075016
943 1 5.569188542101054 21.93143148340869 31.06144200843132
947 1 9.005785256850325 21.857389519939183 30.833082436662274
958 1 9.065246055302381 27.23714091400358 29.05204878056223
903 1 1.897423903111891 32.582599342780554 27.324597110418736
890 1 1.7768169468685309 30.84256377646173 32.60658425033229
916 1 0.022743383028133776 27.356580429614475 27.29983359867094
927 1 1.8273192965408571 29.111281037201298 27.275214123875116
939 1 1.9525526192555316 32.61372757451993 30.918532152724445
962 1 1.8751337984315002 30.861332288977017 29.198270630237353
963 1 1.7734962712094264 29.031602013208254 30.794302213385247
965 1 3.614712931777375 28.909242057290644 29.0152083844629
968 1 3.8083321071032015 30.783853342893153 30.958271587947213
889 1 0.10269402282479194 29.092434360561725 32.63585374325987
966 1 5.32305805480124 30.909702108899992 29.07829369048735
954 1 5.368134929517129 27.30202035734155 29.14677177805185
961 1 0.00482608982339805 29.04799766244474 29.17147190607526
967 1 5.428409801942216 28.986416891314846 31.010950277118603
886 1 9.035470329818834 27.256741824201363 32.572518689196784
945 1 7.163586254089922 32.53952418362651 29.026204641445556
894 1 5.492892420720745 30.77409168972002 32.66587242929556
897 1 7.367474827479215 29.003697456667133 32.65665825056845
936 1 7.259332342613125 30.898321545281583 27.270334996656782
960 1 7.286300340104024 27.271993479658704 30.762516460139647
964 1 10.779472955389823 30.938843368964694 30.87665090659383
969 1 7.225103102697179 29.059742495785926 28.969821662226664
970 1 9.053355144912667 31.03563843793714 28.952980444051814
971 1 9.166977792846344 29.016530906475644 30.876420221142652
972 1 7.455302757624683 30.791447827938104 30.93508375611337
980 1 14.587010537535448 1.7285803564223978 1.8216267131349257
987 1 12.758399620368978 3.58685361540633 1.8658382426672893
1010 1 12.608417218078717 1.7063147774037226 3.4670512335421195
1025 1 14.446870339869786 3.6135740830690164 3.7163619725992008
1016 1 14.419059834382766 1.7630764733452133 5.372682914358216
991 1 16.27040308153876 3.6851635044914084 1.9258424821433449
1009 1 10.956148505356463 0.02749836685152296 3.665949979500187
975 1 12.625679367767887 0.04888437267096535 1.7916706945555958
988 1 10.910097123140337 5.401323533082474 1.731599738647399
1028 1 14.471548927495222 5.375657764314874 5.421156885885914
986 1 12.745403744895098 5.357376430362089 0.06383608233983
989 1 14.544532948402548 3.5997014053841334 0.003236713366393767
1023 1 12.690413688831212 3.5790489944227186 5.4162116686301465
977 1 14.49653350149309 0.002777902157865 0.007119205605014067
976 1 21.66716215938211 1.87604284197009 1.8568402524150718
1021 1 21.716023054411355 3.5162073710920176 3.649022903221786
1014 1 16.460063577262808 1.7978446306036633 3.6390965112852767
984 1 18.198627574461053 1.8916875140040035 1.7779591578385623
995 1 19.989850862551975 3.6517090130923 1.7331878261757692
1018 1 19.860787944896753 1.7308593041149898 3.6614237615361898
1029 1 18.075440944324832 3.575931942279478 3.6999880364484876
993 1 18.017446583643384 3.7739382207553267 0.04677928210457576
1031 1 19.801708827289147 3.6311351121313424 5.399331319023486
979 1 16.399624618691746 0.02352931904456003 1.8882402156848312
983 1 20.069747624805096 0.07576845951963895 1.8250480431190004
978 1 16.46532065553393 1.841697300906988 0.09795342466492327
1019 1 20.077717930545703 0.15903107990890802 5.44730953322179
1013 1 14.528838013425142 10.889804161905838 3.5564788487663836
992 1 14.55422933124811 5.500656913213336 1.9587119198065277
990 1 16.29458149065687 5.452790869053711 0.0529969351569869
1022 1 12.575425397319899 5.5130658921663445 3.5544710624168983
999 1 12.611845340272028 7.278173815117082 1.8527166637807677
1004 1 14.487785952645924 9.152021943896779 1.775453277430493
1034 1 12.749249810612147 9.041446047840502 3.71059983436025
1037 1 14.517921924293764 7.279895569800304 3.3993429910367277
1000 1 11.032446775343477 9.08683786423209 1.7767824652889994
1001 1 14.437694364385234 7.239319389837157 0.0867203773583603
1015 1 16.294142467664727 10.852076173237883 5.427180077087328
1036 1 10.95210735931437 9.184828001695541 5.438627926132937
1040 1 14.61487160242956 9.077547220129443 5.390432854472652
1039 1 16.221719190000933 7.313480150366471 5.368011349356221
1026 1 16.383910388553964 5.497685970093112 3.7681206402160314
1030 1 20.267144973763834 5.45395232034958 3.6657280056621877
1033 1 21.786520948819287 7.339937914120989 3.6043780178767135
1032 1 18.236300919269496 5.579869907844297 5.376165955388319
1038 1 16.399497189435316 9.082559402765694 3.4998573348798168
1003 1 16.365732829295467 7.2294035712216385 1.8076569582606856
996 1 18.230900594300742 5.509758753612932 1.9163869815196415
1017 1 18.18692066311043 10.887144183327424 3.591815532782629
1007 1 20.010250796983378 7.301591668478944 1.650545738841002
1008 1 18.179740142219323 9.1490441083623 1.7842385400865208
1041 1 18.270283616814854 7.30036786671051 3.6559857137305176
1042 1 19.956196953608803 9.161393920841036 3.5347708026945184
1006 1 20.149365901484217 9.122654814003933 0.06068836139195842
981 1 18.24063455653388 10.846839956634103 0.036747996595448695
1043 1 20.00282278166135 7.3100174423419135 5.432715974956223
974 1 12.756572762020275 1.8334732271757161 10.875340362056777
1046 1 12.786206860867456 1.711268534946581 7.2235818165521835
1052 1 14.674013166593644 1.819154033251052 9.056246937716937
1059 1 12.661969376212479 3.549909221702907 9.083543027524248
1061 1 14.541953735423366 3.58680521781506 7.469858562110948
1049 1 14.642246188606242 0.1069088436429055 7.386480964298365
1064 1 14.497052622386542 5.400266498491478 9.0636889537157
1060 1 10.94858337196667 5.3551174206150955 9.185508655710624
1058 1 12.58403815769692 5.370381883901839 7.27212728866483
1045 1 10.947201082542183 0.036729818354697234 7.2659670497622395
1027 1 16.500980572923922 3.7242410461028617 5.548341569359288
985 1 21.67270326998581 3.559012409204104 10.877643726897285
1050 1 16.419532651324346 1.9001026362371822 7.37429824196504
973 1 21.71165198662409 0.0653271665265185 10.890743784809471
982 1 19.920516344242742 1.7537858444832448 10.897838988187534
1020 1 18.117880848492682 1.7601501500240058 5.647075646293236
1048 1 21.683203902058416 1.8630969019123313 9.05170038858197
1012 1 21.7592962027596 1.8571367929848055 5.527946525371934
1057 1 21.737880149978594 3.6244516565828864 7.161394235194607
1063 1 16.47644058674338 3.805200681432788 9.1133824688534
1054 1 20.004882891980415 1.8962152431915624 7.253658766160367
1056 1 18.159354553131163 1.7890862911658652 9.101643915601835
1065 1 18.23491496727473 3.681165946362207 7.21158851135398
1067 1 19.93905839695628 3.7325446547650465 9.073914552075015
1051 1 16.471788542101052 0.126231483408693 9.256242008431323
1055 1 19.908385256850323 0.05218951993918175 9.027882436662273
1066 1 19.96784605530238 5.431940914003579 7.246848780562232
1011 1 12.80002390311189 10.777399342780551 5.519397110418739
998 1 12.67941694686853 9.037363776461731 10.80138425033229
1024 1 10.925343383028133 5.5513804296144755 5.494633598670942
1035 1 12.729919296540857 7.306081037201299 5.470014123875116
1047 1 12.85515261925553 10.808527574519928 9.113332152724446
1070 1 12.7777337984315 9.05613228897702 7.393070630237352
1071 1 12.676096271209426 7.226402013208255 8.989102213385248
1073 1 14.517312931777376 7.104042057290644 7.2100083844629
1076 1 14.7109321071032 8.978653342893153 9.153071587947213
997 1 11.005294022824792 7.287234360561728 10.83065374325987
1074 1 16.22565805480124 9.104502108899995 7.273093690487348
1062 1 16.27073492951713 5.496820357341552 7.3415717780518515
1069 1 10.907426089823398 7.242797662444741 7.366271906075262
1075 1 16.331009801942216 7.181216891314846 9.205750277118605
994 1 19.938070329818835 5.451541824201365 10.767318689196783
1053 1 18.06618625408992 10.734324183626514 7.221004641445557
1002 1 16.395492420720743 8.96889168972002 10.860672429295564
1005 1 18.270074827479213 7.198497456667136 10.851458250568449
1044 1 18.161932342613124 9.093121545281583 5.465134996656783
1068 1 18.188900340104023 5.466793479658705 8.957316460139648
1072 1 21.68207295538982 9.133643368964695 9.07145090659383
1077 1 18.12770310269718 7.254542495785926 7.164621662226667
1078 1 19.955955144912664 9.230438437937142 7.147780444051815
1079 1 20.069577792846346 7.211330906475646 9.071220221142651
1080 1 18.357902757624682 8.986247827938104 9.129883756113374
1088 1 14.587010537535448 1.7285803564223978 12.724226713134925
1095 1 12.758399620368978 3.58685361540633 12.768438242667289
1118 1 12.608417218078717 1.7063147774037226 14.369651233542118
1133 1 14.446870339869786 3.6135740830690164 14.6189619725992
1124 1 14.419059834382766 1.7630764733452133 16.275282914358215
1099 1 16.27040308153876 3.6851635044914084 12.828442482143345
1117 1 10.956148505356463 0.02749836685152296 14.568549979500187
1083 1 12.625679367767887 0.04888437267096535 12.694270694555595
1096 1 10.910097123140337 5.401323533082474 12.634199738647398
1136 1 14.471548927495222 5.375657764314874 16.323756885885913
1094 1 12.745403744895098 5.357376430362089 10.966436082339829
1097 1 14.544532948402548 3.5997014053841334 10.905836713366394
1131 1 12.690413688831212 3.5790489944227186 16.318811668630147
1085 1 14.49653350149309 0.002777902157865 10.909719205605013
1084 1 21.66716215938211 1.87604284197009 12.759440252415072
1129 1 21.716023054411355 3.5162073710920176 14.551622903221785
1122 1 16.460063577262808 1.7978446306036633 14.541696511285277
1092 1 18.198627574461053 1.8916875140040035 12.680559157838562
1103 1 19.989850862551975 3.6517090130923 12.635787826175768
1126 1 19.860787944896753 1.7308593041149898 14.56402376153619
1137 1 18.075440944324832 3.575931942279478 14.602588036448488
1101 1 18.017446583643384 3.7739382207553267 10.949379282104575
1139 1 19.801708827289147 3.6311351121313424 16.301931319023485
1087 1 16.399624618691746 0.02352931904456003 12.790840215684831
1091 1 20.069747624805096 0.07576845951963895 12.727648043119
1086 1 16.46532065553393 1.841697300906988 11.000553424664924
1127 1 20.077717930545703 0.15903107990890802 16.34990953322179
1121 1 14.528838013425142 10.889804161905838 14.459078848766383
1100 1 14.55422933124811 5.500656913213336 12.861311919806527
1098 1 16.29458149065687 5.452790869053711 10.955596935156986
1130 1 12.575425397319899 5.5130658921663445 14.457071062416897
1107 1 12.611845340272028 7.278173815117082 12.755316663780768
1112 1 14.487785952645924 9.152021943896779 12.678053277430493
1142 1 12.749249810612147 9.041446047840502 14.61319983436025
1145 1 14.517921924293764 7.279895569800304 14.301942991036727
1108 1 11.032446775343477 9.08683786423209 12.679382465288999
1109 1 14.437694364385234 7.239319389837157 10.98932037735836
1123 1 16.294142467664727 10.852076173237883 16.329780077087328
1144 1 10.95210735931437 9.184828001695541 16.341227926132937
1148 1 14.61487160242956 9.077547220129443 16.293032854472653
1147 1 16.221719190000933 7.313480150366471 16.270611349356223
1134 1 16.383910388553964 5.497685970093112 14.67072064021603
1138 1 20.267144973763834 5.45395232034958 14.568328005662188
1141 1 21.786520948819287 7.339937914120989 14.506978017876714
1140 1 18.236300919269496 5.579869907844297 16.27876595538832
1146 1 16.399497189435316 9.082559402765694 14.402457334879816
1111 1 16.365732829295467 7.2294035712216385 12.710256958260686
1104 1 18.230900594300742 5.509758753612932 12.818986981519641
1125 1 18.18692066311043 10.887144183327424 14.494415532782629
1115 1 20.010250796983378 7.301591668478944 12.553145738841001
1116 1 18.179740142219323 9.1490441083623 12.686838540086521
1149 1 18.270283616814854 7.30036786671051 14.558585713730517
1150 1 19.956196953608803 9.161393920841036 14.437370802694518
1114 1 20.149365901484217 9.122654814003933 10.963288361391959
1089 1 18.24063455653388 10.846839956634103 10.939347996595448
1151 1 20.00282278166135 7.3100174423419135 16.335315974956224
1082 1 12.756572762020275 1.8334732271757161 21.777940362056775
1154 1 12.786206860867456 1.711268534946581 18.126181816552183
1160 1 14.674013166593644 1.819154033251052 19.958846937716935
1167 1 12.661969376212479 3.549909221702907 19.98614302752425
1169 1 14.541953735423366 3.58680521781506 18.37245856211095
1157 1 14.642246188606242 0.1069088436429055 18.289080964298364
1172 1 14.497052622386542 5.400266498491478 19.966288953715697
1168 1 10.94858337196667 5.3551174206150955 20.088108655710624
1166 1 12.58403815769692 5.370381883901839 18.17472728866483
1153 1 10.947201082542183 0.036729818354697234 18.16856704976224
1135 1 16.500980572923922 3.7242410461028617 16.450941569359287
1093 1 21.67270326998581 3.559012409204104 21.780243726897282
1158 1 16.419532651324346 1.9001026362371822 18.27689824196504
1081 1 21.71165198662409 0.0653271665265185 21.793343784809473
1090 1 19.920516344242742 1.7537858444832448 21.800438988187533
1128 1 18.117880848492682 1.7601501500240058 16.549675646293235
1156 1 21.683203902058416 1.8630969019123313 19.95430038858197
1120 1 21.7592962027596 1.8571367929848055 16.430546525371934
1165 1 21.737880149978594 3.6244516565828864 18.063994235194606
1171 1 16.47644058674338 3.805200681432788 20.0159824688534
1162 1 20.004882891980415 1.8962152431915624 18.156258766160366
1164 1 18.159354553131163 1.7890862911658652 20.004243915601833
1173 1 18.23491496727473 3.681165946362207 18.11418851135398
1175 1 19.93905839695628 3.7325446547650465 19.976514552075017
1159 1 16.471788542101052 0.126231483408693 20.15884200843132
1163 1 19.908385256850323 0.05218951993918175 19.930482436662274
1174 1 19.96784605530238 5.431940914003579 18.14944878056223
1119 1 12.80002390311189 10.777399342780551 16.421997110418737
1106 1 12.67941694686853 9.037363776461731 21.70398425033229
1132 1 10.925343383028133 5.5513804296144755 16.39723359867094
1143 1 12.729919296540857 7.306081037201299 16.372614123875117
1155 1 12.85515261925553 10.808527574519928 20.015932152724446
1178 1 12.7777337984315 9.05613228897702 18.295670630237353
1179 1 12.676096271209426 7.226402013208255 19.891702213385248
1181 1 14.517312931777376 7.104042057290644 18.1126083844629
1184 1 14.7109321071032 8.978653342893153 20.055671587947213
1105 1 11.005294022824792 7.287234360561728 21.73325374325987
1182 1 16.22565805480124 9.104502108899995 18.17569369048735
1170 1 16.27073492951713 5.496820357341552 18.24417177805185
1177 1 10.907426089823398 7.242797662444741 18.268871906075262
1183 1 16.331009801942216 7.181216891314846 20.108350277118603
1102 1 19.938070329818835 5.451541824201365 21.669918689196784
1161 1 18.06618625408992 10.734324183626514 18.123604641445556
1110 1 16.395492420720743 8.96889168972002 21.76327242929556
1113 1 18.270074827479213 7.198497456667136 21.75405825056845
1152 1 18.161932342613124 9.093121545281583 16.367734996656782
1176 1 18.188900340104023 5.466793479658705 19.859916460139647
1180 1 21.68207295538982 9.133643368964695 19.97405090659383
1185 1 18.12770310269718 7.254542495785926 18.067221662226665
1186 1 19.955955144912664 9.230438437937142 18.050380444051815
1187 1 20.069577792846346 7.211330906475646 19.973820221142653
1188 1 18.357902757624682 8.986247827938104 20.032483756113372
1196 1 14.587010537535448 1.7285803564223978 23.626826713134925
1203 1 12.758399620368978 3.58685361540633 23.67103824266729
1226 1 12.608417218078717 1.7063147774037226 25.272251233542118
1241 1 14.446870339869786 3.6135740830690164 25.5215619725992
1232 1 14.419059834382766 1.7630764733452133 27.177882914358214
1207 1 16.27040308153876 3.6851635044914084 23.731042482143344
1225 1 10.956148505356463 0.02749836685152296 25.471149979500186
1191 1 12.625679367767887 0.04888437267096535 23.596870694555594
1204 1 10.910097123140337 5.401323533082474 23.5367997386474
1244 1 14.471548927495222 5.375657764314874 27.226356885885913
1202 1 12.745403744895098 5.357376430362089 21.86903608233983
1205 1 14.544532948402548 3.5997014053841334 21.808436713366394
1239 1 12.690413688831212 3.5790489944227186 27.221411668630147
1193 1 14.49653350149309 0.002777902157865 21.812319205605014
1192 1 21.66716215938211 1.87604284197009 23.66204025241507
1237 1 21.716023054411355 3.5162073710920176 25.454222903221783
1230 1 16.460063577262808 1.7978446306036633 25.444296511285277
1200 1 18.198627574461053 1.8916875140040035 23.583159157838562
1211 1 19.989850862551975 3.6517090130923 23.538387826175768
1234 1 19.860787944896753 1.7308593041149898 25.46662376153619
1245 1 18.075440944324832 3.575931942279478 25.505188036448487
1209 1 18.017446583643384 3.7739382207553267 21.851979282104576
1247 1 19.801708827289147 3.6311351121313424 27.204531319023484
1195 1 16.399624618691746 0.02352931904456003 23.69344021568483
1199 1 20.069747624805096 0.07576845951963895 23.630248043119
1194 1 16.46532065553393 1.841697300906988 21.90315342466492
1235 1 20.077717930545703 0.15903107990890802 27.25250953322179
1229 1 14.528838013425142 10.889804161905838 25.36167884876638
1208 1 14.55422933124811 5.500656913213336 23.763911919806528
1206 1 16.29458149065687 5.452790869053711 21.858196935156986
1238 1 12.575425397319899 5.5130658921663445 25.359671062416897
1215 1 12.611845340272028 7.278173815117082 23.657916663780767
1220 1 14.487785952645924 9.152021943896779 23.580653277430493
1250 1 12.749249810612147 9.041446047840502 25.515799834360248
1253 1 14.517921924293764 7.279895569800304 25.20454299103673
1216 1 11.032446775343477 9.08683786423209 23.581982465289
1217 1 14.437694364385234 7.239319389837157 21.89192037735836
1231 1 16.294142467664727 10.852076173237883 27.232380077087328
1252 1 10.95210735931437 9.184828001695541 27.243827926132937
1256 1 14.61487160242956 9.077547220129443 27.195632854472652
1255 1 16.221719190000933 7.313480150366471 27.173211349356222
1242 1 16.383910388553964 5.497685970093112 25.573320640216032
1246 1 20.267144973763834 5.45395232034958 25.470928005662188
1249 1 21.786520948819287 7.339937914120989 25.40957801787671
1248 1 18.236300919269496 5.579869907844297 27.18136595538832
1254 1 16.399497189435316 9.082559402765694 25.305057334879816
1219 1 16.365732829295467 7.2294035712216385 23.612856958260686
1212 1 18.230900594300742 5.509758753612932 23.72158698151964
1233 1 18.18692066311043 10.887144183327424 25.39701553278263
1223 1 20.010250796983378 7.301591668478944 23.455745738841003
1224 1 18.179740142219323 9.1490441083623 23.58943854008652
1257 1 18.270283616814854 7.30036786671051 25.461185713730515
1258 1 19.956196953608803 9.161393920841036 25.339970802694516
1222 1 20.149365901484217 9.122654814003933 21.865888361391956
1197 1 18.24063455653388 10.846839956634103 21.841947996595447
1259 1 20.00282278166135 7.3100174423419135 27.237915974956223
1190 1 12.756572762020275 1.8334732271757161 32.680540362056774
1262 1 12.786206860867456 1.711268534946581 29.028781816552183
1268 1 14.674013166593644 1.819154033251052 30.861446937716934
1275 1 12.661969376212479 3.549909221702907 30.88874302752425
1277 1 14.541953735423366 3.58680521781506 29.27505856211095
1265 1 14.642246188606242 0.1069088436429055 29.191680964298364
1280 1 14.497052622386542 5.400266498491478 30.868888953715697
1276 1 10.94858337196667 5.3551174206150955 30.990708655710623
1274 1 12.58403815769692 5.370381883901839 29.07732728866483
1261 1 10.947201082542183 0.036729818354697234 29.071167049762238
1243 1 16.500980572923922 3.7242410461028617 27.353541569359287
1201 1 21.67270326998581 3.559012409204104 32.68284372689728
1266 1 16.419532651324346 1.9001026362371822 29.17949824196504
1189 1 21.71165198662409 0.0653271665265185 32.69594378480947
1198 1 19.920516344242742 1.7537858444832448 32.70303898818753
1236 1 18.117880848492682 1.7601501500240058 27.452275646293234
1264 1 21.683203902058416 1.8630969019123313 30.85690038858197
1228 1 21.7592962027596 1.8571367929848055 27.333146525371934
1273 1 21.737880149978594 3.6244516565828864 28.966594235194606
1279 1 16.47644058674338 3.805200681432788 30.9185824688534
1270 1 20.004882891980415 1.8962152431915624 29.058858766160366
1272 1 18.159354553131163 1.7890862911658652 30.906843915601833
1281 1 18.23491496727473 3.681165946362207 29.01678851135398
1283 1 19.93905839695628 3.7325446547650465 30.879114552075016
1267 1 16.471788542101052 0.126231483408693 31.06144200843132
1271 1 19.908385256850323 0.05218951993918175 30.833082436662274
1282 1 19.96784605530238 5.431940914003579 29.05204878056223
1227 1 12.80002390311189 10.777399342780551 27.324597110418736
1214 1 12.67941694686853 9.037363776461731 32.60658425033229
1240 1 10.925343383028133 5.5513804296144755 27.29983359867094
1251 1 12.729919296540857 7.306081037201299 27.275214123875116
1263 1 12.85515261925553 10.808527574519928 30.918532152724445
1286 1 12.7777337984315 9.05613228897702 29.198270630237353
1287 1 12.676096271209426 7.226402013208255 30.794302213385247
1289 1 14.517312931777376 7.104042057290644 29.0152083844629
1292 1 14.7109321071032 8.978653342893153 30.958271587947213
1213 1 11.005294022824792 7.287234360561728 32.63585374325987
1290 1 16.22565805480124 9.104502108899995 29.07829369048735
1278 1 16.27073492951713 5.496820357341552 29.14677177805185
1285 1 10.907426089823398 7.242797662444741 29.17147190607526
1291 1 16.331009801942216 7.181216891314846 31.010950277118603
1210 1 19.938070329818835 5.451541824201365 32.572518689196784
1269 1 18.06618625408992 10.734324183626514 29.026204641445556
1218 1 16.395492420720743 8.96889168972002 32.66587242929556
1221 1 18.270074827479213 7.198497456667136 32.65665825056845
1260 1 18.161932342613124 9.093121545281583 27.270334996656782
1284 1 18.188900340104023 5.466793479658705 30.762516460139647
1288 1 21.68207295538982 9.133643368964695 30.87665090659383
1293 1 18.12770310269718 7.254542495785926 28.969821662226664
1294 1 19.955955144912664 9.230438437937142 28.952980444051814
1295 1 20.069577792846346 7.211330906475646 30.876420221142652
1296 1 18.357902757624682 8.986247827938104 30.93508375611337
1304 1 14.587010537535448 12.631180356422398 1.8216267131349257
1311 1 12.758399620368978 14.48945361540633 1.8658382426672893
1334 1 12.608417218078717 12.608914777403722 3.4670512335421195
1349 1 14.446870339869786 14.516174083069016 3.7163619725992008
1340 1 14.419059834382766 12.665676473345213 5.372682914358216
1315 1 16.27040308153876 14.587763504491408 1.9258424821433449
1333 1 10.956148505356463 10.930098366851523 3.665949979500187
1299 1 12.625679367767887 10.951484372670965 1.7916706945555958
1312 1 10.910097123140337 16.303923533082475 1.731599738647399
1352 1 14.471548927495222 16.278257764314873 5.421156885885914
1310 1 12.745403744895098 16.259976430362087 0.06383608233983
1313 1 14.544532948402548 14.502301405384133 0.003236713366393767
1347 1 12.690413688831212 14.481648994422718 5.4162116686301465
1301 1 14.49653350149309 10.905377902157865 0.007119205605014067
1300 1 21.66716215938211 12.77864284197009 1.8568402524150718
1345 1 21.716023054411355 14.418807371092017 3.649022903221786
1338 1 16.460063577262808 12.700444630603663 3.6390965112852767
1308 1 18.198627574461053 12.794287514004003 1.7779591578385623
1319 1 19.989850862551975 14.5543090130923 1.7331878261757692
1342 1 19.860787944896753 12.63345930411499 3.6614237615361898
1353 1 18.075440944324832 14.478531942279478 3.6999880364484876
1317 1 18.017446583643384 14.676538220755326 0.04677928210457576
1355 1 19.801708827289147 14.533735112131343 5.399331319023486
1303 1 16.399624618691746 10.92612931904456 1.8882402156848312
1307 1 20.069747624805096 10.978368459519638 1.8250480431190004
1302 1 16.46532065553393 12.744297300906988 0.09795342466492327
1343 1 20.077717930545703 11.061631079908908 5.44730953322179
1337 1 14.528838013425142 21.792404161905836 3.5564788487663836
1316 1 14.55422933124811 16.403256913213337 1.9587119198065277
1314 1 16.29458149065687 16.35539086905371 0.0529969351569869
1346 1 12.575425397319899 16.415665892166345 3.5544710624168983
1323 1 12.611845340272028 18.18077381511708 1.8527166637807677
1328 1 14.487785952645924 20.054621943896777 1.775453277430493
1358 1 12.749249810612147 19.9440460478405 3.71059983436025
1361 1 14.517921924293764 18.182495569800302 3.3993429910367277
1324 1 11.032446775343477 19.989437864232087 1.7767824652889994
1325 1 14.437694364385234 18.141919389837156 0.0867203773583603
1339 1 16.294142467664727 21.754676173237883 5.427180077087328
1360 1 10.95210735931437 20.087428001695542 5.438627926132937
1364 1 14.61487160242956 19.980147220129442 5.390432854472652
1363 1 16.221719190000933 18.21608015036647 5.368011349356221
1350 1 16.383910388553964 16.400285970093112 3.7681206402160314
1354 1 20.267144973763834 16.35655232034958 3.6657280056621877
1357 1 21.786520948819287 18.242537914120987 3.6043780178767135
1356 1 18.236300919269496 16.482469907844298 5.376165955388319
1362 1 16.399497189435316 19.985159402765696 3.4998573348798168
1327 1 16.365732829295467 18.132003571221638 1.8076569582606856
1320 1 18.230900594300742 16.41235875361293 1.9163869815196415
1341 1 18.18692066311043 21.78974418332742 3.591815532782629
1331 1 20.010250796983378 18.204191668478945 1.650545738841002
1332 1 18.179740142219323 20.0516441083623 1.7842385400865208
1365 1 18.270283616814854 18.20296786671051 3.6559857137305176
1366 1 19.956196953608803 20.063993920841035 3.5347708026945184
1330 1 20.149365901484217 20.025254814003933 0.06068836139195842
1305 1 18.24063455653388 21.749439956634102 0.036747996595448695
1367 1 20.00282278166135 18.212617442341912 5.432715974956223
1298 1 12.756572762020275 12.736073227175716 10.875340362056777
1370 1 12.786206860867456 12.613868534946581 7.2235818165521835
1376 1 14.674013166593644 12.721754033251052 9.056246937716937
1383 1 12.661969376212479 14.452509221702908 9.083543027524248
1385 1 14.541953735423366 14.48940521781506 7.469858562110948
1373 1 14.642246188606242 11.009508843642905 7.386480964298365
1388 1 14.497052622386542 16.302866498491476 9.0636889537157
1384 1 10.94858337196667 16.257717420615094 9.185508655710624
1382 1 12.58403815769692 16.27298188390184 7.27212728866483
1369 1 10.947201082542183 10.939329818354697 7.2659670497622395
1351 1 16.500980572923922 14.62684104610286 5.548341569359288
1309 1 21.67270326998581 14.461612409204104 10.877643726897285
1374 1 16.419532651324346 12.802702636237182 7.37429824196504
1297 1 21.71165198662409 10.967927166526518 10.890743784809471
1306 1 19.920516344242742 12.656385844483244 10.897838988187534
1344 1 18.117880848492682 12.662750150024005 5.647075646293236
1372 1 21.683203902058416 12.765696901912332 9.05170038858197
1336 1 21.7592962027596 12.759736792984805 5.527946525371934
1381 1 21.737880149978594 14.527051656582886 7.161394235194607
1387 1 16.47644058674338 14.707800681432788 9.1133824688534
1378 1 20.004882891980415 12.798815243191562 7.253658766160367
1380 1 18.159354553131163 12.691686291165865 9.101643915601835
1389 1 18.23491496727473 14.583765946362206 7.21158851135398
1391 1 19.93905839695628 14.635144654765046 9.073914552075015
1375 1 16.471788542101052 11.028831483408693 9.256242008431323
1379 1 19.908385256850323 10.954789519939181 9.027882436662273
1390 1 19.96784605530238 16.33454091400358 7.246848780562232
1335 1 12.80002390311189 21.67999934278055 5.519397110418739
1322 1 12.67941694686853 19.93996377646173 10.80138425033229
1348 1 10.925343383028133 16.453980429614475 5.494633598670942
1359 1 12.729919296540857 18.2086810372013 5.470014123875116
1371 1 12.85515261925553 21.711127574519928 9.113332152724446
1394 1 12.7777337984315 19.958732288977018 7.393070630237352
1395 1 12.676096271209426 18.129002013208254 8.989102213385248
1397 1 14.517312931777376 18.006642057290644 7.2100083844629
1400 1 14.7109321071032 19.881253342893153 9.153071587947213
1321 1 11.005294022824792 18.189834360561726 10.83065374325987
1398 1 16.22565805480124 20.007102108899993 7.273093690487348
1386 1 16.27073492951713 16.39942035734155 7.3415717780518515
1393 1 10.907426089823398 18.14539766244474 7.366271906075262
1399 1 16.331009801942216 18.083816891314846 9.205750277118605
1318 1 19.938070329818835 16.354141824201363 10.767318689196783
1377 1 18.06618625408992 21.636924183626512 7.221004641445557
1326 1 16.395492420720743 19.87149168972002 10.860672429295564
1329 1 18.270074827479213 18.101097456667134 10.851458250568449
1368 1 18.161932342613124 19.995721545281583 5.465134996656783
1392 1 18.188900340104023 16.369393479658704 8.957316460139648
1396 1 21.68207295538982 20.036243368964694 9.07145090659383
1401 1 18.12770310269718 18.157142495785926 7.164621662226667
1402 1 19.955955144912664 20.13303843793714 7.147780444051815
1403 1 20.069577792846346 18.113930906475645 9.071220221142651
1404 1 18.357902757624682 19.888847827938104 9.129883756113374
1412 1 14.587010537535448 12.631180356422398 12.724226713134925
1419 1 12.758399620368978 14.48945361540633 12.768438242667289
1442 1 12.608417218078717 12.608914777403722 14.369651233542118
1457 1 14.446870339869786 14.516174083069016 14.6189619725992
1448 1 14.419059834382766 12.665676473345213 16.275282914358215
1423 1 16.27040308153876 14.587763504491408 12.828442482143345
1441 1 10.956148505356463 10.930098366851523 14.568549979500187
1407 1 12.625679367767887 10.951484372670965 12.694270694555595
1420 1 10.910097123140337 16.303923533082475 12.634199738647398
1460 1 14.471548927495222 16.278257764314873 16.323756885885913
1418 1 12.745403744895098 16.259976430362087 10.966436082339829
1421 1 14.544532948402548 14.502301405384133 10.905836713366394
1455 1 12.690413688831212 14.481648994422718 16.318811668630147
1409 1 14.49653350149309 10.905377902157865 10.909719205605013
1408 1 21.66716215938211 12.77864284197009 12.759440252415072
1453 1 21.716023054411355 14.418807371092017 14.551622903221785
1446 1 16.460063577262808 12.700444630603663 14.541696511285277
1416 1 18.198627574461053 12.794287514004003 12.680559157838562
1427 1 19.989850862551975 14.5543090130923 12.635787826175768
1450 1 19.860787944896753 12.63345930411499 14.56402376153619
1461 1 18.075440944324832 14.478531942279478 14.602588036448488
1425 1 18.017446583643384 14.676538220755326 10.949379282104575
1463 1 19.801708827289147 14.533735112131343 16.301931319023485
1411 1 16.399624618691746 10.92612931904456 12.790840215684831
1415 1 20.069747624805096 10.978368459519638 12.727648043119
1410 1 16.46532065553393 12.744297300906988 11.000553424664924
1451 1 20.077717930545703 11.061631079908908 16.34990953322179
1445 1 14.528838013425142 21.792404161905836 14.459078848766383
1424 1 14.55422933124811 16.403256913213337 12.861311919806527
1422 1 16.29458149065687 16.35539086905371 10.955596935156986
1454 1 12.575425397319899 16.415665892166345 14.457071062416897
1431 1 12.611845340272028 18.18077381511708 12.755316663780768
1436 1 14.487785952645924 20.054621943896777 12.678053277430493
1466 1 12.749249810612147 19.9440460478405 14.61319983436025
1469 1 14.517921924293764 18.182495569800302 14.301942991036727
1432 1 11.032446775343477 19.989437864232087 12.679382465288999
1433 1 14.437694364385234 18.141919389837156 10.98932037735836
1447 1 16.294142467664727 21.754676173237883 16.329780077087328
1468 1 10.95210735931437 20.087428001695542 16.341227926132937
1472 1 14.61487160242956 19.980147220129442 16.293032854472653
1471 1 16.221719190000933 18.21608015036647 16.270611349356223
1458 1 16.383910388553964 16.400285970093112 14.67072064021603
1462 1 20.267144973763834 16.35655232034958 14.568328005662188
1465 1 21.786520948819287 18.242537914120987 14.506978017876714
1464 1 18.236300919269496 16.482469907844298 16.27876595538832
1470 1 16.399497189435316 19.985159402765696 14.402457334879816
1435 1 16.365732829295467 18.132003571221638 12.710256958260686
1428 1 18.230900594300742 16.41235875361293 12.818986981519641
1449 1 18.18692066311043 21.78974418332742 14.494415532782629
1439 1 20.010250796983378 18.204191668478945 12.553145738841001
1440 1 18.179740142219323 20.0516441083623 12.686838540086521
1473 1 18.270283616814854 18.20296786671051 14.558585713730517
1474 1 19.956196953608803 20.063993920841035 14.437370802694518
1438 1 20.149365901484217 20.025254814003933 10.963288361391959
1413 1 18.24063455653388 21.749439956634102 10.939347996595448
1475 1 20.00282278166135 18.212617442341912 16.335315974956224
1406 1 12.756572762020275 12.736073227175716 21.777940362056775
1478 1 12.786206860867456 12.613868534946581 18.126181816552183
1484 1 14.674013166593644 12.721754033251052 19.958846937716935
1491 1 12.661969376212479 14.452509221702908 19.98614302752425
1493 1 14.541953735423366 14.48940521781506 18.37245856211095
1481 1 14.642246188606242 11.009508843642905 18.289080964298364
1496 1 14.497052622386542 16.302866498491476 19.966288953715697
1492 1 10.94858337196667 16.257717420615094 20.088108655710624
1490 1 12.58403815769692 16.27298188390184 18.17472728866483
1477 1 10.947201082542183 10.939329818354697 18.16856704976224
1459 1 16.500980572923922 14.62684104610286 16.450941569359287
1417 1 21.67270326998581 14.461612409204104 21.780243726897282
1482 1 16.419532651324346 12.802702636237182 18.27689824196504
1405 1 21.71165198662409 10.967927166526518 21.793343784809473
1414 1 19.920516344242742 12.656385844483244 21.800438988187533
1452 1 18.117880848492682 12.662750150024005 16.549675646293235
1480 1 21.683203902058416 12.765696901912332 19.95430038858197
1444 1 21.7592962027596 12.759736792984805 16.430546525371934
1489 1 21.737880149978594 14.527051656582886 18.063994235194606
1495 1 16.47644058674338 14.707800681432788 20.0159824688534
1486 1 20.004882891980415 12.798815243191562 18.156258766160366
1488 1 18.159354553131163 12.691686291165865 20.004243915601833
1497 1 18.23491496727473 14.583765946362206 18.11418851135398
1499 1 19.93905839695628 14.635144654765046 19.976514552075017
1483 1 16.471788542101052 11.028831483408693 20.15884200843132
1487 1 19.908385256850323 10.954789519939181 19.930482436662274
1498 1 19.96784605530238 16.33454091400358 18.14944878056223
1443 1 12.80002390311189 21.67999934278055 16.421997110418737
1430 1 12.67941694686853 19.93996377646173 21.70398425033229
1456 1 10.925343383028133 16.453980429614475 16.39723359867094
1467 1 12.729919296540857 18.2086810372013 16.372614123875117
1479 1 12.85515261925553 21.711127574519928 20.015932152724446
1502 1 12.7777337984315 19.958732288977018 18.295670630237353
1503 1 12.676096271209426 18.129002013208254 19.891702213385248
1505 1 14.517312931777376 18.006642057290644 18.1126083844629
1508 1 14.7109321071032 19.881253342893153 20.055671587947213
1429 1 11.005294022824792 18.189834360561726 21.73325374325987
1506 1 16.22565805480124 20.007102108899993 18.17569369048735
1494 1 16.27073492951713 16.39942035734155 18.24417177805185
1501 1 10.907426089823398 18.14539766244474 18.268871906075262
1507 1 16.331009801942216 18.083816891314846 20.108350277118603
1426 1 19.938070329818835 16.354141824201363 21.669918689196784
1485 1 18.06618625408992 21.636924183626512 18.123604641445556
1434 1 16.395492420720743 19.87149168972002 21.76327242929556
1437 1 18.270074827479213 18.101097456667134 21.75405825056845
1476 1 18.161932342613124 19.995721545281583 16.367734996656782
1500 1 18.188900340104023 16.369393479658704 19.859916460139647
1504 1 21.68207295538982 20.036243368964694 19.97405090659383
1509 1 18.12770310269718 18.157142495785926 18.067221662226665
1510 1 19.955955144912664 20.13303843793714 18.050380444051815
1511 1 20.069577792846346 18.113930906475645 19.973820221142653
1512 1 18.357902757624682 19.888847827938104 20.032483756113372
1520 1 14.587010537535448 12.631180356422398 23.626826713134925
1527 1 12.758399620368978 14.48945361540633 23.67103824266729
1550 1 12.608417218078717 12.608914777403722 25.272251233542118
1565 1 14.446870339869786 14.516174083069016 25.5215619725992
1556 1 14.419059834382766 12.665676473345213 27.177882914358214
1531 1 16.27040308153876 14.587763504491408 23.731042482143344
1549 1 10.956148505356463 10.930098366851523 25.471149979500186
1515 1 12.625679367767887 10.951484372670965 23.596870694555594
1528 1 10.910097123140337 16.303923533082475 23.5367997386474
1568 1 14.471548927495222 16.278257764314873 27.226356885885913
1526 1 12.745403744895098 16.259976430362087 21.86903608233983
1529 1 14.544532948402548 14.502301405384133 21.808436713366394
1563 1 12.690413688831212 14.481648994422718 27.221411668630147
1517 1 14.49653350149309 10.905377902157865 21.812319205605014
1516 1 21.66716215938211 12.77864284197009 23.66204025241507
1561 1 21.716023054411355 14.418807371092017 25.454222903221783
1554 1 16.460063577262808 12.700444630603663 25.444296511285277
1524 1 18.198627574461053 12.794287514004003 23.583159157838562
1535 1 19.989850862551975 14.5543090130923 23.538387826175768
1558 1 19.860787944896753 12.63345930411499 25.46662376153619
1569 1 18.075440944324832 14.478531942279478 25.505188036448487
1533 1 18.017446583643384 14.676538220755326 21.851979282104576
1571 1 19.801708827289147 14.533735112131343 27.204531319023484
1519 1 16.399624618691746 10.92612931904456 23.69344021568483
1523 1 20.069747624805096 10.978368459519638 23.630248043119
1518 1 16.46532065553393 12.744297300906988 21.90315342466492
1559 1 20.077717930545703 11.061631079908908 27.25250953322179
1553 1 14.528838013425142 21.792404161905836 25.36167884876638
1532 1 14.55422933124811 16.403256913213337 23.763911919806528
1530 1 16.29458149065687 16.35539086905371 21.858196935156986
1562 1 12.575425397319899 16.415665892166345 25.359671062416897
1539 1 12.611845340272028 18.18077381511708 23.657916663780767
1544 1 14.487785952645924 20.054621943896777 23.580653277430493
1574 1 12.749249810612147 19.9440460478405 25.515799834360248
1577 1 14.517921924293764 18.182495569800302 25.20454299103673
1540 1 11.032446775343477 19.989437864232087 23.581982465289
1541 1 14.437694364385234 18.141919389837156 21.89192037735836
1555 1 16.294142467664727 21.754676173237883 27.232380077087328
1576 1 10.95210735931437 20.087428001695542 27.243827926132937
1580 1 14.61487160242956 19.980147220129442 27.195632854472652
1579 1 16.221719190000933 18.21608015036647 27.173211349356222
1566 1 16.383910388553964 16.400285970093112 25.573320640216032
1570 1 20.267144973763834 16.35655232034958 25.470928005662188
1573 1 21.786520948819287 18.242537914120987 25.40957801787671
1572 1 18.236300919269496 16.482469907844298 27.18136595538832
1578 1 16.399497189435316 19.985159402765696 25.305057334879816
1543 1 16.365732829295467 18.132003571221638 23.612856958260686
1536 1 18.230900594300742 16.41235875361293 23.72158698151964
1557 1 18.18692066311043 21.78974418332742 25.39701553278263
1547 1 20.010250796983378 18.204191668478945 23.455745738841003
1548 1 18.179740142219323 20.0516441083623 23.58943854008652
1581 1 18.270283616814854 18.20296786671051 25.461185713730515
1582 1 19.956196953608803 20.063993920841035 25.339970802694516
1546 1 20.149365901484217 20.025254814003933 21.865888361391956
1521 1 18.24063455653388 21.749439956634102 21.841947996595447
1583 1 20.00282278166135 18.212617442341912 27.237915974956223
1514 1 12.756572762020275 12.736073227175716 32.680540362056774
1586 1 12.786206860867456 12.613868534946581 29.028781816552183
1592 1 14.674013166593644 12.721754033251052 30.861446937716934
1599 1 12.661969376212479 14.452509221702908 30.88874302752425
1601 1 14.541953735423366 14.48940521781506 29.27505856211095
1589 1 14.642246188606242 11.009508843642905 29.191680964298364
1604 1 14.497052622386542 16.302866498491476 30.868888953715697
1600 1 10.94858337196667 16.257717420615094 30.990708655710623
1598 1 12.58403815769692 16.27298188390184 29.07732728866483
1585 1 10.947201082542183 10.939329818354697 29.071167049762238
1567 1 16.500980572923922 14.62684104610286 27.353541569359287
1525 1 21.67270326998581 14.461612409204104 32.68284372689728
1590 1 16.419532651324346 12.802702636237182 29.17949824196504
1513 1 21.71165198662409 10.967927166526518 32.69594378480947
1522 1 19.920516344242742 12.656385844483244 32.70303898818753
1560 1 18.117880848492682 12.662750150024005 27.452275646293234
1588 1 21.683203902058416 12.765696901912332 30.85690038858197
1552 1 21.7592962027596 12.759736792984805 27.333146525371934
1597 1 21.737880149978594 14.527051656582886 28.966594235194606
1603 1 16.47644058674338 14.707800681432788 30.9185824688534
1594 1 20.004882891980415 12.798815243191562 29.058858766160366
1596 1 18.159354553131163 12.691686291165865 30.906843915601833
1605 1 18.23491496727473 14.583765946362206 29.01678851135398
1607 1 19.93905839695628 14.635144654765046 30.879114552075016
1591 1 16.471788542101052 11.028831483408693 31.06144200843132
1595 1 19.908385256850323 10.954789519939181 30.833082436662274
1606 1 19.96784605530238 16.33454091400358 29.05204878056223
1551 1 12.80002390311189 21.67999934278055 27.324597110418736
1538 1 12.67941694686853 19.93996377646173 32.60658425033229
1564 1 10.925343383028133 16.453980429614475 27.29983359867094
1575 1 12.729919296540857 18.2086810372013 27.275214123875116
1587 1 12.85515261925553 21.711127574519928 30.918532152724445
1610 1 12.7777337984315 19.958732288977018 29.198270630237353
1611 1 12.676096271209426 18.129002013208254 30.794302213385247
1613 1 14.517312931777376 18.006642057290644 29.0152083844629
1616 1 14.7109321071032 19.881253342893153 30.958271587947213
1537 1 11.005294022824792 18.189834360561726 32.63585374325987
1614 1 16.22565805480124 20.007102108899993 29.07829369048735
1602 1 16.27073492951713 16.39942035734155 29.14677177805185
1609 1 10.907426089823398 18.14539766244474 29.17147190607526
1615 1 16.331009801942216 18.083816891314846 31.010950277118603
1534 1 19.938070329818835 16.354141824201363 32.572518689196784
1593 1 18.06618625408992 21.636924183626512 29.026204641445556
1542 1 16.395492420720743 19.87149168972002 32.66587242929556
1545 1 18.270074827479213 18.101097456667134 32.65665825056845
1584 1 18.161932342613124 19.995721545281583 27.270334996656782
1608 1 18.188900340104023 16.369393479658704 30.762516460139647
1612 1 21.68207295538982 20.036243368964694 30.87665090659383
1617 1 18.12770310269718 18.157142495785926 28.969821662226664
1618 1 19.955955144912664 20.13303843793714 28.952980444051814
1619 1 20.069577792846346 18.113930906475645 30.876420221142652
1620 1 18.357902757624682 19.888847827938104 30.93508375611337
1628 1 14.587010537535448 23.533780356422398 1.8216267131349257
1635 1 12.758399620368978 25.39205361540633 1.8658382426672893
1658 1 12.608417218078717 23.511514777403722 3.4670512335421195
1673 1 14.446870339869786 25.418774083069017 3.7163619725992008
1664 1 14.419059834382766 23.56827647334521 5.372682914358216
1639 1 16.27040308153876 25.49036350449141 1.9258424821433449
1657 1 10.956148505356463 21.832698366851524 3.665949979500187
1623 1 12.625679367767887 21.854084372670965 1.7916706945555958
1636 1 10.910097123140337 27.206523533082475 1.731599738647399
1676 1 14.471548927495222 27.180857764314872 5.421156885885914
1634 1 12.745403744895098 27.162576430362087 0.06383608233983
1637 1 14.544532948402548 25.404901405384134 0.003236713366393767
1671 1 12.690413688831212 25.38424899442272 5.4162116686301465
1625 1 14.49653350149309 21.807977902157866 0.007119205605014067
1624 1 21.66716215938211 23.68124284197009 1.8568402524150718
1669 1 21.716023054411355 25.321407371092018 3.649022903221786
1662 1 16.460063577262808 23.603044630603662 3.6390965112852767
1632 1 18.198627574461053 23.696887514004004 1.7779591578385623
1643 1 19.989850862551975 25.4569090130923 1.7331878261757692
1666 1 19.860787944896753 23.53605930411499 3.6614237615361898
1677 1 18.075440944324832 25.381131942279477 3.6999880364484876
1641 1 18.017446583643384 25.579138220755326 0.04677928210457576
1679 1 19.801708827289147 25.436335112131342 5.399331319023486
1627 1 16.399624618691746 21.82872931904456 1.8882402156848312
1631 1 20.069747624805096 21.88096845951964 1.8250480431190004
1626 1 16.46532065553393 23.646897300906986 0.09795342466492327
1667 1 20.077717930545703 21.964231079908906 5.44730953322179
1661 1 14.528838013425142 32.695004161905835 3.5564788487663836
1640 1 14.55422933124811 27.305856913213336 1.9587119198065277
1638 1 16.29458149065687 27.25799086905371 0.0529969351569869
1670 1 12.575425397319899 27.318265892166345 3.5544710624168983
1647 1 12.611845340272028 29.08337381511708 1.8527166637807677
1652 1 14.487785952645924 30.957221943896776 1.775453277430493
1682 1 12.749249810612147 30.8466460478405 3.71059983436025
1685 1 14.517921924293764 29.085095569800302 3.3993429910367277
1648 1 11.032446775343477 30.892037864232087 1.7767824652889994
1649 1 14.437694364385234 29.044519389837156 0.0867203773583603
1663 1 16.294142467664727 32.65727617323788 5.427180077087328
1684 1 10.95210735931437 30.990028001695542 5.438627926132937
1688 1 14.61487160242956 30.882747220129442 5.390432854472652
1687 1 16.221719190000933 29.11868015036647 5.368011349356221
1674 1 16.383910388553964 27.30288597009311 3.7681206402160314
1678 1 20.267144973763834 27.25915232034958 3.6657280056621877
1681 1 21.786520948819287 29.145137914120987 3.6043780178767135
1680 1 18.236300919269496 27.385069907844297 5.376165955388319
1686 1 16.399497189435316 30.887759402765695 3.4998573348798168
1651 1 16.365732829295467 29.034603571221638 1.8076569582606856
1644 1 18.230900594300742 27.31495875361293 1.9163869815196415
1665 1 18.18692066311043 32.69234418332742 3.591815532782629
1655 1 20.010250796983378 29.106791668478945 1.650545738841002
1656 1 18.179740142219323 30.9542441083623 1.7842385400865208
1689 1 18.270283616814854 29.10556786671051 3.6559857137305176
1690 1 19.956196953608803 30.966593920841035 3.5347708026945184
1654 1 20.149365901484217 30.927854814003933 0.06068836139195842
1629 1 18.24063455653388 32.6520399566341 0.036747996595448695
1691 1 20.00282278166135 29.115217442341912 5.432715974956223
1622 1 12.756572762020275 23.638673227175715 10.875340362056777
1694 1 12.786206860867456 23.51646853494658 7.2235818165521835
1700 1 14.674013166593644 23.624354033251052 9.056246937716937
1707 1 12.661969376212479 25.355109221702907 9.083543027524248
1709 1 14.541953735423366 25.392005217815058 7.469858562110948
1697 1 14.642246188606242 21.912108843642905 7.386480964298365
1712 1 14.497052622386542 27.205466498491475 9.0636889537157
1708 1 10.94858337196667 27.160317420615094 9.185508655710624
1706 1 12.58403815769692 27.175581883901838 7.27212728866483
1693 1 10.947201082542183 21.841929818354696 7.2659670497622395
1675 1 16.500980572923922 25.52944104610286 5.548341569359288
1633 1 21.67270326998581 25.364212409204104 10.877643726897285
1698 1 16.419532651324346 23.70530263623718 7.37429824196504
1621 1 21.71165198662409 21.870527166526518 10.890743784809471
1630 1 19.920516344242742 23.558985844483246 10.897838988187534
1668 1 18.117880848492682 23.565350150024006 5.647075646293236
1696 1 21.683203902058416 23.66829690191233 9.05170038858197
1660 1 21.7592962027596 23.662336792984803 5.527946525371934
1705 1 21.737880149978594 25.429651656582884 7.161394235194607
1711 1 16.47644058674338 25.610400681432786 9.1133824688534
1702 1 20.004882891980415 23.701415243191562 7.253658766160367
1704 1 18.159354553131163 23.594286291165865 9.101643915601835
1713 1 18.23491496727473 25.486365946362206 7.21158851135398
1715 1 19.93905839695628 25.537744654765046 9.073914552075015
1699 1 16.471788542101052 21.93143148340869 9.256242008431323
1703 1 19.908385256850323 21.857389519939183 9.027882436662273
1714 1 19.96784605530238 27.23714091400358 7.246848780562232
1659 1 12.80002390311189 32.582599342780554 5.519397110418739
1646 1 12.67941694686853 30.84256377646173 10.80138425033229
1672 1 10.925343383028133 27.356580429614475 5.494633598670942
1683 1 12.729919296540857 29.111281037201298 5.470014123875116
1695 1 12.85515261925553 32.61372757451993 9.113332152724446
1718 1 12.7777337984315 30.861332288977017 7.393070630237352
1719 1 12.676096271209426 29.031602013208254 8.989102213385248
1721 1 14.517312931777376 28.909242057290644 7.2100083844629
1724 1 14.7109321071032 30.783853342893153 9.153071587947213
1645 1 11.005294022824792 29.092434360561725 10.83065374325987
1722 1 16.22565805480124 30.909702108899992 7.273093690487348
1710 1 16.27073492951713 27.30202035734155 7.3415717780518515
1717 1 10.907426089823398 29.04799766244474 7.366271906075262
1723 1 16.331009801942216 28.986416891314846 9.205750277118605
1642 1 19.938070329818835 27.256741824201363 10.767318689196783
1701 1 18.06618625408992 32.53952418362651 7.221004641445557
1650 1 16.395492420720743 30.77409168972002 10.860672429295564
1653 1 18.270074827479213 29.003697456667133 10.851458250568449
1692 1 18.161932342613124 30.898321545281583 5.465134996656783
1716 1 18.188900340104023 27.271993479658704 8.957316460139648
1720 1 21.68207295538982 30.938843368964694 9.07145090659383
1725 1 18.12770310269718 29.059742495785926 7.164621662226667
1726 1 19.955955144912664 31.03563843793714 7.147780444051815
1727 1 20.069577792846346 29.016530906475644 9.071220221142651
1728 1 18.357902757624682 30.791447827938104 9.129883756113374
1736 1 14.587010537535448 23.533780356422398 12.724226713134925
1743 1 12.758399620368978 25.39205361540633 12.768438242667289
1766 1 12.608417218078717 23.511514777403722 14.369651233542118
1781 1 14.446870339869786 25.418774083069017 14.6189619725992
1772 1 14.419059834382766 23.56827647334521 16.275282914358215
1747 1 16.27040308153876 25.49036350449141 12.828442482143345
1765 1 10.956148505356463 21.832698366851524 14.568549979500187
1731 1 12.625679367767887 21.854084372670965 12.694270694555595
1744 1 10.910097123140337 27.206523533082475 12.634199738647398
1784 1 14.471548927495222 27.180857764314872 16.323756885885913
1742 1 12.745403744895098 27.162576430362087 10.966436082339829
1745 1 14.544532948402548 25.404901405384134 10.905836713366394
1779 1 12.690413688831212 25.38424899442272 16.318811668630147
1733 1 14.49653350149309 21.807977902157866 10.909719205605013
1732 1 21.66716215938211 23.68124284197009 12.759440252415072
1777 1 21.716023054411355 25.321407371092018 14.551622903221785
1770 1 16.460063577262808 23.603044630603662 14.541696511285277
1740 1 18.198627574461053 23.696887514004004 12.680559157838562
1751 1 19.989850862551975 25.4569090130923 12.635787826175768
1774 1 19.860787944896753 23.53605930411499 14.56402376153619
1785 1 18.075440944324832 25.381131942279477 14.602588036448488
1749 1 18.017446583643384 25.579138220755326 10.949379282104575
1787 1 19.801708827289147 25.436335112131342 16.301931319023485
1735 1 16.399624618691746 21.82872931904456 12.790840215684831
1739 1 20.069747624805096 21.88096845951964 12.727648043119
1734 1 16.46532065553393 23.646897300906986 11.000553424664924
1775 1 20.077717930545703 21.964231079908906 16.34990953322179
1769 1 14.528838013425142 32.695004161905835 14.459078848766383
1748 1 14.55422933124811 27.305856913213336 12.861311919806527
1746 1 16.29458149065687 27.25799086905371 10.955596935156986
1778 1 12.575425397319899 27.318265892166345 14.457071062416897
1755 1 12.611845340272028 29.08337381511708 12.755316663780768
1760 1 14.487785952645924 30.957221943896776 12.678053277430493
1790 1 12.749249810612147 30.8466460478405 14.61319983436025
1793 1 14.517921924293764 29.085095569800302 14.301942991036727
1756 1 11.032446775343477 30.892037864232087 12.679382465288999
1757 1 14.437694364385234 29.044519389837156 10.98932037735836
1771 1 16.294142467664727 32.65727617323788 16.329780077087328
1792 1 10.95210735931437 30.990028001695542 16.341227926132937
1796 1 14.61487160242956 30.882747220129442 16.293032854472653
1795 1 16.221719190000933 29.11868015036647 16.270611349356223
1782 1 16.383910388553964 27.30288597009311 14.67072064021603
1786 1 20.267144973763834 27.25915232034958 14.568328005662188
1789 1 21.786520948819287 29.145137914120987 14.506978017876714
1788 1 18.236300919269496 27.385069907844297 16.27876595538832
1794 1 16.399497189435316 30.887759402765695 14.402457334879816
1759 1 16.365732829295467 29.034603571221638 12.710256958260686
1752 1 18.230900594300742 27.31495875361293 12.818986981519641
1773 1 18.18692066311043 32.69234418332742 14.494415532782629
1763 1 20.010250796983378 29.106791668478945 12.553145738841001
1764 1 18.179740142219323 30.9542441083623 12.686838540086521
1797 1 18.270283616814854 29.10556786671051 14.558585713730517
1798 1 19.956196953608803 30.966593920841035 14.437370802694518
1762 1 20.149365901484217 30.927854814003933 10.963288361391959
1737 1 18.24063455653388 32.6520399566341 10.939347996595448
1799 1 20.00282278166135 29.115217442341912 16.335315974956224
1730 1 12.756572762020275 23.638673227175715 21.777940362056775
1802 1 12.786206860867456 23.51646853494658 18.126181816552183
1808 1 14.674013166593644 23.624354033251052 19.958846937716935
1815 1 12.661969376212479 25.355109221702907 19.98614302752425
1817 1 14.541953735423366 25.392005217815058 18.37245856211095
1805 1 14.642246188606242 21.912108843642905 18.289080964298364
1820 1 14.497052622386542 27.205466498491475 19.966288953715697
1816 1 10.94858337196667 27.160317420615094 20.088108655710624
1814 1 12.58403815769692 27.175581883901838 18.17472728866483
1801 1 10.947201082542183 21.841929818354696 18.16856704976224
1783 1 16.500980572923922 25.52944104610286 16.450941569359287
1741 1 21.67270326998581 25.364212409204104 21.780243726897282
1806 1 16.419532651324346 23.70530263623718 18.27689824196504
1729 1 21.71165198662409 21.870527166526518 21.793343784809473
1738 1 19.920516344242742 23.558985844483246 21.800438988187533
1776 1 18.117880848492682 23.565350150024006 16.549675646293235
1804 1 21.683203902058416 23.66829690191233 19.95430038858197
1768 1 21.7592962027596 23.662336792984803 16.430546525371934
1813 1 21.737880149978594 25.429651656582884 18.063994235194606
1819 1 16.47644058674338 25.610400681432786 20.0159824688534
1810 1 20.004882891980415 23.701415243191562 18.156258766160366
1812 1 18.159354553131163 23.594286291165865 20.004243915601833
1821 1 18.23491496727473 25.486365946362206 18.11418851135398
1823 1 19.93905839695628 25.537744654765046 19.976514552075017
1807 1 16.471788542101052 21.93143148340869 20.15884200843132
1811 1 19.908385256850323 21.857389519939183 19.930482436662274
1822 1 19.96784605530238 27.23714091400358 18.14944878056223
1767 1 12.80002390311189 32.582599342780554 16.421997110418737
1754 1 12.67941694686853 30.84256377646173 21.70398425033229
1780 1 10.925343383028133 27.356580429614475 16.39723359867094
1791 1 12.729919296540857 29.111281037201298 16.372614123875117
1803 1 12.85515261925553 32.61372757451993 20.015932152724446
1826 1 12.7777337984315 30.861332288977017 18.295670630237353
1827 1 12.676096271209426 29.031602013208254 19.891702213385248
1829 1 14.517312931777376 28.909242057290644 18.1126083844629
1832 1 14.7109321071032 30.783853342893153 20.055671587947213
1753 1 11.005294022824792 29.092434360561725 21.73325374325987
1830 1 16.22565805480124 30.909702108899992 18.17569369048735
1818 1 16.27073492951713 27.30202035734155 18.24417177805185
1825 1 10.907426089823398 29.04799766244474 18.268871906075262
1831 1 16.331009801942216 28.986416891314846 20.108350277118603
1750 1 19.938070329818835 27.256741824201363 21.669918689196784
1809 1 18.06618625408992 32.53952418362651 18.123604641445556
1758 1 16.395492420720743 30.77409168972002 21.76327242929556
1761 1 18.270074827479213 29.003697456667133 21.75405825056845
1800 1 18.161932342613124 30.898321545281583 16.367734996656782
1824 1 18.188900340104023 27.271993479658704 19.859916460139647
1828 1 21.68207295538982 30.938843368964694 19.97405090659383
1833 1 18.12770310269718 29.059742495785926 18.067221662226665
1834 1 19.955955144912664 31.03563843793714 18.050380444051815
1835 1 20.069577792846346 29.016530906475644 19.973820221142653
1836 1 18.357902757624682 30.791447827938104 20.032483756113372
1844 1 14.587010537535448 23.533780356422398 23.626826713134925
1851 1 12.758399620368978 25.39205361540633 23.67103824266729
1874 1 12.608417218078717 23.511514777403722 25.272251233542118
1889 1 14.446870339869786 25.418774083069017 25.5215619725992
1880 1 14.419059834382766 23.56827647334521 27.177882914358214
1855 1 16.27040308153876 25.49036350449141 23.731042482143344
1873 1 10.956148505356463 21.832698366851524 25.471149979500186
1839 1 12.625679367767887 21.854084372670965 23.596870694555594
1852 1 10.910097123140337 27.206523533082475 23.5367997386474
1892 1 14.471548927495222 27.180857764314872 27.226356885885913
1850 1 12.745403744895098 27.162576430362087 21.86903608233983
1853 1 14.544532948402548 25.404901405384134 21.808436713366394
1887 1 12.690413688831212 25.38424899442272 27.221411668630147
1841 1 14.49653350149309 21.807977902157866 21.812319205605014
1840 1 21.66716215938211 23.68124284197009 23.66204025241507
1885 1 21.716023054411355 25.321407371092018 25.454222903221783
1878 1 16.460063577262808 23.603044630603662 25.444296511285277
1848 1 18.198627574461053 23.696887514004004 23.583159157838562
1859 1 19.989850862551975 25.4569090130923 23.538387826175768
1882 1 19.860787944896753 23.53605930411499 25.46662376153619
1893 1 18.075440944324832 25.381131942279477 25.505188036448487
1857 1 18.017446583643384 25.579138220755326 21.851979282104576
1895 1 19.801708827289147 25.436335112131342 27.204531319023484
1843 1 16.399624618691746 21.82872931904456 23.69344021568483
1847 1 20.069747624805096 21.88096845951964 23.630248043119
1842 1 16.46532065553393 23.646897300906986 21.90315342466492
1883 1 20.077717930545703 21.964231079908906 27.25250953322179
1877 1 14.528838013425142 32.695004161905835 25.36167884876638
1856 1 14.55422933124811 27.305856913213336 23.763911919806528
1854 1 16.29458149065687 27.25799086905371 21.858196935156986
1886 1 12.575425397319899 27.318265892166345 25.359671062416897
1863 1 12.611845340272028 29.08337381511708 23.657916663780767
1868 1 14.487785952645924 30.957221943896776 23.580653277430493
1898 1 12.749249810612147 30.8466460478405 25.515799834360248
1901 1 14.517921924293764 29.085095569800302 25.20454299103673
1864 1 11.032446775343477 30.892037864232087 23.581982465289
1865 1 14.437694364385234 29.044519389837156 21.89192037735836
1879 1 16.294142467664727 32.65727617323788 27.232380077087328
1900 1 10.95210735931437 30.990028001695542 27.243827926132937
1904 1 14.61487160242956 30.882747220129442 27.195632854472652
1903 1 16.221719190000933 29.11868015036647 27.173211349356222
1890 1 16.383910388553964 27.30288597009311 25.573320640216032
1894 1 20.267144973763834 27.25915232034958 25.470928005662188
1897 1 21.786520948819287 29.145137914120987 25.40957801787671
1896 1 18.236300919269496 27.385069907844297 27.18136595538832
1902 1 16.399497189435316 30.887759402765695 25.305057334879816
1867 1 16.365732829295467 29.034603571221638 23.612856958260686
1860 1 18.230900594300742 27.31495875361293 23.72158698151964
1881 1 18.18692066311043 32.69234418332742 25.39701553278263
1871 1 20.010250796983378 29.106791668478945 23.455745738841003
1872 1 18.179740142219323 30.9542441083623 23.58943854008652
1905 1 18.270283616814854 29.10556786671051 25.461185713730515
1906 1 19.956196953608803 30.966593920841035 25.339970802694516
1870 1 20.149365901484217 30.927854814003933 21.865888361391956
1845 1 18.24063455653388 32.6520399566341 21.841947996595447
1907 1 20.00282278166135 29.115217442341912 27.237915974956223
1838 1 12.756572762020275 23.638673227175715 32.680540362056774
1910 1 12.786206860867456 23.51646853494658 29.028781816552183
1916 1 14.674013166593644 23.624354033251052 30.861446937716934
1923 1 12.661969376212479 25.355109221702907 30.88874302752425
1925 1 14.541953735423366 25.392005217815058 29.27505856211095
1913 1 14.642246188606242 21.912108843642905 29.191680964298364
1928 1 14.497052622386542 27.205466498491475 30.868888953715697
1924 1 10.94858337196667 27.160317420615094 30.990708655710623
1922 1 12.58403815769692 27.175581883901838 29.07732728866483
1909 1 10.947201082542183 21.841929818354696 29.071167049762238
1891 1 16.500980572923922 25.52944104610286 27.353541569359287
1849 1 21.67270326998581 25.364212409204104 32.68284372689728
1914 1 16.419532651324346 23.70530263623718 29.17949824196504
1837 1 21.71165198662409 21.870527166526518 32.69594378480947
1846 1 19.920516344242742 23.558985844483246 32.70303898818753
1884 1 18.117880848492682 23.565350150024006 27.452275646293234
1912 1 21.683203902058416 23.66829690191233 30.85690038858197
1876 1 21.7592962027596 23.662336792984803 27.333146525371934
1921 1 21.737880149978594 25.429651656582884 28.966594235194606
1927 1 16.47644058674338 25.610400681432786 30.9185824688534
1918 1 20.004882891980415 23.701415243191562 29.058858766160366
1920 1 18.159354553131163 23.594286291165865 30.906843915601833
1929 1 18.23491496727473 25.486365946362206 29.01678851135398
1931 1 19.93905839695628 25.537744654765046 30.879114552075016
1915 1 16.471788542101052 21.93143148340869 31.06144200843132
1919 1 19.908385256850323 21.857389519939183 30.833082436662274
1930 1 19.96784605530238 27.23714091400358 29.05204878056223
1875 1 12.80002390311189 32.582599342780554 27.324597110418736
1862 1 12.67941694686853 30.84256377646173 32.60658425033229
1888 1 10.925343383028133 27.356580429614475 27.29983359867094
1899 1 12.729919296540857 29.111281037201298 27.275214123875116
1911 1 12.85515261925553 32.61372757451993 30.918532152724445
1934 1 12.7777337984315 30.861332288977017 29.198270630237353
1935 1 12.676096271209426 29.031602013208254 30.794302213385247
1937 1 14.517312931777376 28.909242057290644 29.0152083844629
1940 1 14.7109321071032 30.783853342893153 30.958271587947213
1861 1 11.005294022824792 29.092434360561725 32.63585374325987
1938 1 16.22565805480124 30.909702108899992 29.07829369048735
1926 1 16.27073492951713 27.30202035734155 29.14677177805185
1933 1 10.907426089823398 29.04799766244474 29.17147190607526
1939 1 16.331009801942216 28.986416891314846 31.010950277118603
1858 1 19.938070329818835 27.256741824201363 32.572518689196784
1917 1 18.06618625408992 32.53952418362651 29.026204641445556
1866 1 16.395492420720743 30.77409168972002 32.66587242929556
1869 1 18.270074827479213 29.003697456667133 32.65665825056845
1908 1 18.161932342613124 30.898321545281583 27.270334996656782
1932 1 18.188900340104023 27.271993479658704 30.762516460139647
1936 1 21.68207295538982 30.938843368964694 30.87665090659383
1941 1 18.12770310269718 29.059742495785926 28.969821662226664
1942 1 19.955955144912664 31.03563843793714 28.952980444051814
1943 1 20.069577792846346 29.016530906475644 30.876420221142652
1944 1 18.357902757624682 30.791447827938104 30.93508375611337
1952 1 25.489610537535448 1.7285803564223978 1.8216267131349257
1959 1 23.660999620368976 3.58685361540633 1.8658382426672893
1982 1 23.511017218078717 1.7063147774037226 3.4670512335421195
1997 1 25.349470339869786 3.6135740830690164 3.7163619725992008
1988 1 25.321659834382764 1.7630764733452133 5.372682914358216
1963 1 27.17300308153876 3.6851635044914084 1.9258424821433449
1981 1 21.858748505356463 0.02749836685152296 3.665949979500187
1947 1 23.528279367767887 0.04888437267096535 1.7916706945555958
1960 1 21.81269712314034 5.401323533082474 1.731599738647399
2000 1 25.37414892749522 5.375657764314874 5.421156885885914
1958 1 23.6480037448951 5.357376430362089 0.06383608233983
1961 1 25.447132948402547 3.5997014053841334 0.003236713366393767
1995 1 23.59301368883121 3.5790489944227186 5.4162116686301465
1949 1 25.39913350149309 0.002777902157865 0.007119205605014067
1948 1 32.56976215938211 1.87604284197009 1.8568402524150718
1993 1 32.61862305441136 3.5162073710920176 3.649022903221786
1986 1 27.362663577262808 1.7978446306036633 3.6390965112852767
1956 1 29.101227574461053 1.8916875140040035 1.7779591578385623
1967 1 30.892450862551975 3.6517090130923 1.7331878261757692
1990 1 30.763387944896753 1.7308593041149898 3.6614237615361898
2001 1 28.97804094432483 3.575931942279478 3.6999880364484876
1965 1 28.920046583643384 3.7739382207553267 0.04677928210457576
2003 1 30.704308827289147 3.6311351121313424 5.399331319023486
1951 1 27.302224618691746 0.02352931904456003 1.8882402156848312
1955 1 30.972347624805096 0.07576845951963895 1.8250480431190004
1950 1 27.36792065553393 1.841697300906988 0.09795342466492327
1991 1 30.980317930545702 0.15903107990890802 5.44730953322179
1985 1 25.431438013425144 10.889804161905838 3.5564788487663836
1964 1 25.45682933124811 5.500656913213336 1.9587119198065277
1962 1 27.19718149065687 5.452790869053711 0.0529969351569869
1994 1 23.478025397319897 5.5130658921663445 3.5544710624168983
1971 1 23.51444534027203 7.278173815117082 1.8527166637807677
1976 1 25.39038595264592 9.152021943896779 1.775453277430493
2006 1 23.65184981061215 9.041446047840502 3.71059983436025
2009 1 25.420521924293762 7.279895569800304 3.3993429910367277
1972 1 21.935046775343476 9.08683786423209 1.7767824652889994
1973 1 25.340294364385233 7.239319389837157 0.0867203773583603
1987 1 27.196742467664727 10.852076173237883 5.427180077087328
2008 1 21.854707359314368 9.184828001695541 5.438627926132937
2012 1 25.51747160242956 9.077547220129443 5.390432854472652
2011 1 27.124319190000932 7.313480150366471 5.368011349356221
1998 1 27.286510388553964 5.497685970093112 3.7681206402160314
2002 1 31.169744973763834 5.45395232034958 3.6657280056621877
2005 1 32.68912094881929 7.339937914120989 3.6043780178767135
2004 1 29.138900919269496 5.579869907844297 5.376165955388319
2010 1 27.302097189435315 9.082559402765694 3.4998573348798168
1975 1 27.268332829295467 7.2294035712216385 1.8076569582606856
1968 1 29.13350059430074 5.509758753612932 1.9163869815196415
1989 1 29.08952066311043 10.887144183327424 3.591815532782629
1979 1 30.912850796983378 7.301591668478944 1.650545738841002
1980 1 29.082340142219323 9.1490441083623 1.7842385400865208
2013 1 29.172883616814854 7.30036786671051 3.6559857137305176
2014 1 30.858796953608802 9.161393920841036 3.5347708026945184
1978 1 31.051965901484216 9.122654814003933 0.06068836139195842
1953 1 29.14323455653388 10.846839956634103 0.036747996595448695
2015 1 30.90542278166135 7.3100174423419135 5.432715974956223
1946 1 23.659172762020273 1.8334732271757161 10.875340362056777
2018 1 23.688806860867455 1.711268534946581 7.2235818165521835
2024 1 25.576613166593646 1.819154033251052 9.056246937716937
2031 1 23.56456937621248 3.549909221702907 9.083543027524248
2033 1 25.444553735423366 3.58680521781506 7.469858562110948
2021 1 25.544846188606243 0.1069088436429055 7.386480964298365
2036 1 25.39965262238654 5.400266498491478 9.0636889537157
2032 1 21.85118337196667 5.3551174206150955 9.185508655710624
2030 1 23.48663815769692 5.370381883901839 7.27212728866483
2017 1 21.849801082542182 0.036729818354697234 7.2659670497622395
1999 1 27.40358057292392 3.7242410461028617 5.548341569359288
1957 1 32.57530326998581 3.559012409204104 10.877643726897285
2022 1 27.322132651324345 1.9001026362371822 7.37429824196504
1945 1 32.61425198662409 0.0653271665265185 10.890743784809471
1954 1 30.82311634424274 1.7537858444832448 10.897838988187534
1992 1 29.02048084849268 1.7601501500240058 5.647075646293236
2020 1 32.585803902058416 1.8630969019123313 9.05170038858197
1984 1 32.6618962027596 1.8571367929848055 5.527946525371934
2029 1 32.64048014997859 3.6244516565828864 7.161394235194607
2035 1 27.37904058674338 3.805200681432788 9.1133824688534
2026 1 30.907482891980415 1.8962152431915624 7.253658766160367
2028 1 29.061954553131162 1.7890862911658652 9.101643915601835
2037 1 29.13751496727473 3.681165946362207 7.21158851135398
2039 1 30.84165839695628 3.7325446547650465 9.073914552075015
2023 1 27.37438854210105 0.126231483408693 9.256242008431323
2027 1 30.810985256850323 0.05218951993918175 9.027882436662273
2038 1 30.87044605530238 5.431940914003579 7.246848780562232
1983 1 23.702623903111892 10.777399342780551 5.519397110418739
1970 1 23.58201694686853 9.037363776461731 10.80138425033229
1996 1 21.82794338302813 5.5513804296144755 5.494633598670942
2007 1 23.632519296540856 7.306081037201299 5.470014123875116
2019 1 23.75775261925553 10.808527574519928 9.113332152724446
2042 1 23.680333798431498 9.05613228897702 7.393070630237352
2043 1 23.578696271209427 7.226402013208255 8.989102213385248
2045 1 25.419912931777375 7.104042057290644 7.2100083844629
2048 1 25.6135321071032 8.978653342893153 9.153071587947213
1969 1 21.90789402282479 7.287234360561728 10.83065374325987
2046 1 27.12825805480124 9.104502108899995 7.273093690487348
2034 1 27.17333492951713 5.496820357341552 7.3415717780518515
2041 1 21.810026089823396 7.242797662444741 7.366271906075262
2047 1 27.233609801942215 7.181216891314846 9.205750277118605
1966 1 30.840670329818835 5.451541824201365 10.767318689196783
2025 1 28.96878625408992 10.734324183626514 7.221004641445557
1974 1 27.298092420720742 8.96889168972002 10.860672429295564
1977 1 29.172674827479213 7.198497456667136 10.851458250568449
2016 1 29.064532342613123 9.093121545281583 5.465134996656783
2040 1 29.091500340104023 5.466793479658705 8.957316460139648
2044 1 32.58467295538982 9.133643368964695 9.07145090659383
2049 1 29.03030310269718 7.254542495785926 7.164621662226667
2050 1 30.858555144912664 9.230438437937142 7.147780444051815
2051 1 30.972177792846345 7.211330906475646 9.071220221142651
2052 1 29.260502757624682 8.986247827938104 9.129883756113374
2060 1 25.489610537535448 1.7285803564223978 12.724226713134925
2067 1 23.660999620368976 3.58685361540633 12.768438242667289
2090 1 23.511017218078717 1.7063147774037226 14.369651233542118
2105 1 25.349470339869786 3.6135740830690164 14.6189619725992
2096 1 25.321659834382764 1.7630764733452133 16.275282914358215
2071 1 27.17300308153876 3.6851635044914084 12.828442482143345
2089 1 21.858748505356463 0.02749836685152296 14.568549979500187
2055 1 23.528279367767887 0.04888437267096535 12.694270694555595
2068 1 21.81269712314034 5.401323533082474 12.634199738647398
2108 1 25.37414892749522 5.375657764314874 16.323756885885913
2066 1 23.6480037448951 5.357376430362089 10.966436082339829
2069 1 25.447132948402547 3.5997014053841334 10.905836713366394
2103 1 23.59301368883121 3.5790489944227186 16.318811668630147
2057 1 25.39913350149309 0.002777902157865 10.909719205605013
2056 1 32.56976215938211 1.87604284197009 12.759440252415072
2101 1 32.61862305441136 3.5162073710920176 14.551622903221785
2094 1 27.362663577262808 1.7978446306036633 14.541696511285277
2064 1 29.101227574461053 1.8916875140040035 12.680559157838562
2075 1 30.892450862551975 3.6517090130923 12.635787826175768
2098 1 30.763387944896753 1.7308593041149898 14.56402376153619
2109 1 28.97804094432483 3.575931942279478 14.602588036448488
2073 1 28.920046583643384 3.7739382207553267 10.949379282104575
2111 1 30.704308827289147 3.6311351121313424 16.301931319023485
2059 1 27.302224618691746 0.02352931904456003 12.790840215684831
2063 1 30.972347624805096 0.07576845951963895 12.727648043119
2058 1 27.36792065553393 1.841697300906988 11.000553424664924
2099 1 30.980317930545702 0.15903107990890802 16.34990953322179
2093 1 25.431438013425144 10.889804161905838 14.459078848766383
2072 1 25.45682933124811 5.500656913213336 12.861311919806527
2070 1 27.19718149065687 5.452790869053711 10.955596935156986
2102 1 23.478025397319897 5.5130658921663445 14.457071062416897
2079 1 23.51444534027203 7.278173815117082 12.755316663780768
2084 1 25.39038595264592 9.152021943896779 12.678053277430493
2114 1 23.65184981061215 9.041446047840502 14.61319983436025
2117 1 25.420521924293762 7.279895569800304 14.301942991036727
2080 1 21.935046775343476 9.08683786423209 12.679382465288999
2081 1 25.340294364385233 7.239319389837157 10.98932037735836
2095 1 27.196742467664727 10.852076173237883 16.329780077087328
2116 1 21.854707359314368 9.184828001695541 16.341227926132937
2120 1 25.51747160242956 9.077547220129443 16.293032854472653
2119 1 27.124319190000932 7.313480150366471 16.270611349356223
2106 1 27.286510388553964 5.497685970093112 14.67072064021603
2110 1 31.169744973763834 5.45395232034958 14.568328005662188
2113 1 32.68912094881929 7.339937914120989 14.506978017876714
2112 1 29.138900919269496 5.579869907844297 16.27876595538832
2118 1 27.302097189435315 9.082559402765694 14.402457334879816
2083 1 27.268332829295467 7.2294035712216385 12.710256958260686
2076 1 29.13350059430074 5.509758753612932 12.818986981519641
2097 1 29.08952066311043 10.887144183327424 14.494415532782629
2087 1 30.912850796983378 7.301591668478944 12.553145738841001
2088 1 29.082340142219323 9.1490441083623 12.686838540086521
2121 1 29.172883616814854 7.30036786671051 14.558585713730517
2122 1 30.858796953608802 9.161393920841036 14.437370802694518
2086 1 31.051965901484216 9.122654814003933 10.963288361391959
2061 1 29.14323455653388 10.846839956634103 10.939347996595448
2123 1 30.90542278166135 7.3100174423419135 16.335315974956224
2054 1 23.659172762020273 1.8334732271757161 21.777940362056775
2126 1 23.688806860867455 1.711268534946581 18.126181816552183
2132 1 25.576613166593646 1.819154033251052 19.958846937716935
2139 1 23.56456937621248 3.549909221702907 19.98614302752425
2141 1 25.444553735423366 3.58680521781506 18.37245856211095
2129 1 25.544846188606243 0.1069088436429055 18.289080964298364
2144 1 25.39965262238654 5.400266498491478 19.966288953715697
2140 1 21.85118337196667 5.3551174206150955 20.088108655710624
2138 1 23.48663815769692 5.370381883901839 18.17472728866483
2125 1 21.849801082542182 0.036729818354697234 18.16856704976224
2107 1 27.40358057292392 3.7242410461028617 16.450941569359287
2065 1 32.57530326998581 3.559012409204104 21.780243726897282
2130 1 27.322132651324345 1.9001026362371822 18.27689824196504
2053 1 32.61425198662409 0.0653271665265185 21.793343784809473
2062 1 30.82311634424274 1.7537858444832448 21.800438988187533
2100 1 29.02048084849268 1.7601501500240058 16.549675646293235
2128 1 32.585803902058416 1.8630969019123313 19.95430038858197
2092 1 32.6618962027596 1.8571367929848055 16.430546525371934
2137 1 32.64048014997859 3.6244516565828864 18.063994235194606
2143 1 27.37904058674338 3.805200681432788 20.0159824688534
2134 1 30.907482891980415 1.8962152431915624 18.156258766160366
2136 1 29.061954553131162 1.7890862911658652 20.004243915601833
2145 1 29.13751496727473 3.681165946362207 18.11418851135398
2147 1 30.84165839695628 3.7325446547650465 19.976514552075017
2131 1 27.37438854210105 0.126231483408693 20.15884200843132
2135 1 30.810985256850323 0.05218951993918175 19.930482436662274
2146 1 30.87044605530238 5.431940914003579 18.14944878056223
2091 1 23.702623903111892 10.777399342780551 16.421997110418737
2078 1 23.58201694686853 9.037363776461731 21.70398425033229
2104 1 21.82794338302813 5.5513804296144755 16.39723359867094
2115 1 23.632519296540856 7.306081037201299 16.372614123875117
2127 1 23.75775261925553 10.808527574519928 20.015932152724446
2150 1 23.680333798431498 9.05613228897702 18.295670630237353
2151 1 23.578696271209427 7.226402013208255 19.891702213385248
2153 1 25.419912931777375 7.104042057290644 18.1126083844629
2156 1 25.6135321071032 8.978653342893153 20.055671587947213
2077 1 21.90789402282479 7.287234360561728 21.73325374325987
2154 1 27.12825805480124 9.104502108899995 18.17569369048735
2142 1 27.17333492951713 5.496820357341552 18.24417177805185
2149 1 21.810026089823396 7.242797662444741 18.268871906075262
2155 1 27.233609801942215 7.181216891314846 20.108350277118603
2074 1 30.840670329818835 5.451541824201365 21.669918689196784
2133 1 28.96878625408992 10.734324183626514 18.123604641445556
2082 1 27.298092420720742 8.96889168972002 21.76327242929556
2085 1 29.172674827479213 7.198497456667136 21.75405825056845
2124 1 29.064532342613123 9.093121545281583 16.367734996656782
2148 1 29.091500340104023 5.466793479658705 19.859916460139647
2152 1 32.58467295538982 9.133643368964695 19.97405090659383
2157 1 29.03030310269718 7.254542495785926 18.067221662226665
2158 1 30.858555144912664 9.230438437937142 18.050380444051815
2159 1 30.972177792846345 7.211330906475646 19.973820221142653
2160 1 29.260502757624682 8.986247827938104 20.032483756113372
2168 1 25.489610537535448 1.7285803564223978 23.626826713134925
2175 1 23.660999620368976 3.58685361540633 23.67103824266729
2198 1 23.511017218078717 1.7063147774037226 25.272251233542118
2213 1 25.349470339869786 3.6135740830690164 25.5215619725992
2204 1 25.321659834382764 1.7630764733452133 27.177882914358214
2179 1 27.17300308153876 3.6851635044914084 23.731042482143344
2197 1 21.858748505356463 0.02749836685152296 25.471149979500186
2163 1 23.528279367767887 0.04888437267096535 23.596870694555594
2176 1 21.81269712314034 5.401323533082474 23.5367997386474
2216 1 25.37414892749522 5.375657764314874 27.226356885885913
2174 1 23.6480037448951 5.357376430362089 21.86903608233983
2177 1 25.447132948402547 3.5997014053841334 21.808436713366394
2211 1 23.59301368883121 3.5790489944227186 27.221411668630147
2165 1 25.39913350149309 0.002777902157865 21.812319205605014
2164 1 32.56976215938211 1.87604284197009 23.66204025241507
2209 1 32.61862305441136 3.5162073710920176 25.454222903221783
2202 1 27.362663577262808 1.7978446306036633 25.444296511285277
2172 1 29.101227574461053 1.8916875140040035 23.583159157838562
2183 1 30.892450862551975 3.6517090130923 23.538387826175768
2206 1 30.763387944896753 1.7308593041149898 25.46662376153619
2217 1 28.97804094432483 3.575931942279478 25.505188036448487
2181 1 28.920046583643384 3.7739382207553267 21.851979282104576
2219 1 30.704308827289147 3.6311351121313424 27.204531319023484
2167 1 27.302224618691746 0.02352931904456003 23.69344021568483
2171 1 30.972347624805096 0.07576845951963895 23.630248043119
2166 1 27.36792065553393 1.841697300906988 21.90315342466492
2207 1 30.980317930545702 0.15903107990890802 27.25250953322179
2201 1 25.431438013425144 10.889804161905838 25.36167884876638
2180 1 25.45682933124811 5.500656913213336 23.763911919806528
2178 1 27.19718149065687 5.452790869053711 21.858196935156986
2210 1 23.478025397319897 5.5130658921663445 25.359671062416897
2187 1 23.51444534027203 7.278173815117082 23.657916663780767
2192 1 25.39038595264592 9.152021943896779 23.580653277430493
2222 1 23.65184981061215 9.041446047840502 25.515799834360248
2225 1 25.420521924293762 7.279895569800304 25.20454299103673
2188 1 21.935046775343476 9.08683786423209 23.581982465289
2189 1 25.340294364385233 7.239319389837157 21.89192037735836
2203 1 27.196742467664727 10.852076173237883 27.232380077087328
2224 1 21.854707359314368 9.184828001695541 27.243827926132937
2228 1 25.51747160242956 9.077547220129443 27.195632854472652
2227 1 27.124319190000932 7.313480150366471 27.173211349356222
2214 1 27.286510388553964 5.497685970093112 25.573320640216032
2218 1 31.169744973763834 5.45395232034958 25.470928005662188
2221 1 32.68912094881929 7.339937914120989 25.40957801787671
2220 1 29.138900919269496 5.579869907844297 27.18136595538832
2226 1 27.302097189435315 9.082559402765694 25.305057334879816
2191 1 27.268332829295467 7.2294035712216385 23.612856958260686
2184 1 29.13350059430074 5.509758753612932 23.72158698151964
2205 1 29.08952066311043 10.887144183327424 25.39701553278263
2195 1 30.912850796983378 7.301591668478944 23.455745738841003
2196 1 29.082340142219323 9.1490441083623 23.58943854008652
2229 1 29.172883616814854 7.30036786671051 25.461185713730515
2230 1 30.858796953608802 9.161393920841036 25.339970802694516
2194 1 31.051965901484216 9.122654814003933 21.865888361391956
2169 1 29.14323455653388 10.846839956634103 21.841947996595447
2231 1 30.90542278166135 7.3100174423419135 27.237915974956223
2162 1 23.659172762020273 1.8334732271757161 32.680540362056774
2234 1 23.688806860867455 1.711268534946581 29.028781816552183
2240 1 25.576613166593646 1.819154033251052 30.861446937716934
2247 1 23.56456937621248 3.549909221702907 30.88874302752425
2249 1 25.444553735423366 3.58680521781506 29.27505856211095
2237 1 25.544846188606243 0.1069088436429055 29.191680964298364
2252 1 25.39965262238654 5.400266498491478 30.868888953715697
2248 1 21.85118337196667 5.3551174206150955 30.990708655710623
2246 1 23.48663815769692 5.370381883901839 29.07732728866483
2233 1 21.849801082542182 0.036729818354697234 29.071167049762238
2215 1 27.40358057292392 3.7242410461028617 27.353541569359287
2173 1 32.57530326998581 3.559012409204104 32.68284372689728
2238 1 27.322132651324345 1.9001026362371822 29.17949824196504
2161 1 32.61425198662409 0.0653271665265185 32.69594378480947
2170 1 30.82311634424274 1.7537858444832448 32.70303898818753
2208 1 29.02048084849268 1.7601501500240058 27.452275646293234
2236 1 32.585803902058416 1.8630969019123313 30.85690038858197
2200 1 32.6618962027596 1.8571367929848055 27.333146525371934
2245 1 32.64048014997859 3.6244516565828864 28.966594235194606
2251 1 27.37904058674338 3.805200681432788 30.9185824688534
2242 1 30.907482891980415 1.8962152431915624 29.058858766160366
2244 1 29.061954553131162 1.7890862911658652 30.906843915601833
2253 1 29.13751496727473 3.681165946362207 29.01678851135398
2255 1 30.84165839695628 3.7325446547650465 30.879114552075016
2239 1 27.37438854210105 0.126231483408693 31.06144200843132
2243 1 30.810985256850323 0.05218951993918175 30.833082436662274
2254 1 30.87044605530238 5.431940914003579 29.05204878056223
2199 1 23.702623903111892 10.777399342780551 27.324597110418736
2186 1 23.58201694686853 9.037363776461731 32.60658425033229
2212 1 21.82794338302813 5.5513804296144755 27.29983359867094
2223 1 23.632519296540856 7.306081037201299 27.275214123875116
2235 1 23.75775261925553 10.808527574519928 30.918532152724445
2258 1 23.680333798431498 9.05613228897702 29.198270630237353
2259 1 23.578696271209427 7.226402013208255 30.794302213385247
2261 1 25.419912931777375 7.104042057290644 29.0152083844629
2264 1 25.6135321071032 8.978653342893153 30.958271587947213
2185 1 21.90789402282479 7.287234360561728 32.63585374325987
2262 1 27.12825805480124 9.104502108899995 29.07829369048735
2250 1 27.17333492951713 5.496820357341552 29.14677177805185
2257 1 21.810026089823396 7.242797662444741 29.17147190607526
2263 1 27.233609801942215 7.181216891314846 31.010950277118603
2182 1 30.840670329818835 5.451541824201365 32.572518689196784
2241 1 28.96878625408992 10.734324183626514 29.026204641445556
2190 1 27.298092420720742 8.96889168972002 32.66587242929556
2193 1 29.172674827479213 7.198497456667136 32.65665825056845
2232 1 29.064532342613123 9.093121545281583 27.270334996656782
2256 1 29.091500340104023 5.466793479658705 30.762516460139647
2260 1 32.58467295538982 9.133643368964695 30.87665090659383
2265 1 29.03030310269718 7.254542495785926 28.969821662226664
2266 1 30.858555144912664 9.230438437937142 28.952980444051814
2267 1 30.972177792846345 7.211330906475646 30.876420221142652
2268 1 29.260502757624682 8.986247827938104 30.93508375611337
2276 1 25.489610537535448 12.631180356422398 1.8216267131349257
2283 1 23.660999620368976 14.48945361540633 1.8658382426672893
2306 1 23.511017218078717 12.608914777403722 3.4670512335421195
2321 1 25.349470339869786 14.516174083069016 3.7163619725992008
2312 1 25.321659834382764 12.665676473345213 5.372682914358216
2287 1 27.17300308153876 14.587763504491408 1.9258424821433449
2305 1 21.858748505356463 10.930098366851523 3.665949979500187
2271 1 23.528279367767887 10.951484372670965 1.7916706945555958
2284 1 21.81269712314034 16.303923533082475 1.731599738647399
2324 1 25.37414892749522 16.278257764314873 5.421156885885914
2282 1 23.6480037448951 16.259976430362087 0.06383608233983
2285 1 25.447132948402547 14.502301405384133 0.003236713366393767
2319 1 23.59301368883121 14.481648994422718 5.4162116686301465
2273 1 25.39913350149309 10.905377902157865 0.007119205605014067
2272 1 32.56976215938211 12.77864284197009 1.8568402524150718
2317 1 32.61862305441136 14.418807371092017 3.649022903221786
2310 1 27.362663577262808 12.700444630603663 3.6390965112852767
2280 1 29.101227574461053 12.794287514004003 1.7779591578385623
2291 1 30.892450862551975 14.5543090130923 1.7331878261757692
2314 1 30.763387944896753 12.63345930411499 3.6614237615361898
2325 1 28.97804094432483 14.478531942279478 3.6999880364484876
2289 1 28.920046583643384 14.676538220755326 0.04677928210457576
2327 1 30.704308827289147 14.533735112131343 5.399331319023486
2275 1 27.302224618691746 10.92612931904456 1.8882402156848312
2279 1 30.972347624805096 10.978368459519638 1.8250480431190004
2274 1 27.36792065553393 12.744297300906988 0.09795342466492327
2315 1 30.980317930545702 11.061631079908908 5.44730953322179
2309 1 25.431438013425144 21.792404161905836 3.5564788487663836
2288 1 25.45682933124811 16.403256913213337 1.9587119198065277
2286 1 27.19718149065687 16.35539086905371 0.0529969351569869
2318 1 23.478025397319897 16.415665892166345 3.5544710624168983
2295 1 23.51444534027203 18.18077381511708 1.8527166637807677
2300 1 25.39038595264592 20.054621943896777 1.775453277430493
2330 1 23.65184981061215 19.9440460478405 3.71059983436025
2333 1 25.420521924293762 18.182495569800302 3.3993429910367277
2296 1 21.935046775343476 19.989437864232087 1.7767824652889994
2297 1 25.340294364385233 18.141919389837156 0.0867203773583603
2311 1 27.196742467664727 21.754676173237883 5.427180077087328
2332 1 21.854707359314368 20.087428001695542 5.438627926132937
2336 1 25.51747160242956 19.980147220129442 5.390432854472652
2335 1 27.124319190000932 18.21608015036647 5.368011349356221
2322 1 27.286510388553964 16.400285970093112 3.7681206402160314
2326 1 31.169744973763834 16.35655232034958 3.6657280056621877
2329 1 32.68912094881929 18.242537914120987 3.6043780178767135
2328 1 29.138900919269496 16.482469907844298 5.376165955388319
2334 1 27.302097189435315 19.985159402765696 3.4998573348798168
2299 1 27.268332829295467 18.132003571221638 1.8076569582606856
2292 1 29.13350059430074 16.41235875361293 1.9163869815196415
2313 1 29.08952066311043 21.78974418332742 3.591815532782629
2303 1 30.912850796983378 18.204191668478945 1.650545738841002
2304 1 29.082340142219323 20.0516441083623 1.7842385400865208
2337 1 29.172883616814854 18.20296786671051 3.6559857137305176
2338 1 30.858796953608802 20.063993920841035 3.5347708026945184
2302 1 31.051965901484216 20.025254814003933 0.06068836139195842
2277 1 29.14323455653388 21.749439956634102 0.036747996595448695
2339 1 30.90542278166135 18.212617442341912 5.432715974956223
2270 1 23.659172762020273 12.736073227175716 10.875340362056777
2342 1 23.688806860867455 12.613868534946581 7.2235818165521835
2348 1 25.576613166593646 12.721754033251052 9.056246937716937
2355 1 23.56456937621248 14.452509221702908 9.083543027524248
2357 1 25.444553735423366 14.48940521781506 7.469858562110948
2345 1 25.544846188606243 11.009508843642905 7.386480964298365
2360 1 25.39965262238654 16.302866498491476 9.0636889537157
2356 1 21.85118337196667 16.257717420615094 9.185508655710624
2354 1 23.48663815769692 16.27298188390184 7.27212728866483
2341 1 21.849801082542182 10.939329818354697 7.2659670497622395
2323 1 27.40358057292392 14.62684104610286 5.548341569359288
2281 1 32.57530326998581 14.461612409204104 10.877643726897285
2346 1 27.322132651324345 12.802702636237182 7.37429824196504
2269 1 32.61425198662409 10.967927166526518 10.890743784809471
2278 1 30.82311634424274 12.656385844483244 10.897838988187534
2316 1 29.02048084849268 12.662750150024005 5.647075646293236
2344 1 32.585803902058416 12.765696901912332 9.05170038858197
2308 1 32.6618962027596 12.759736792984805 5.527946525371934
2353 1 32.64048014997859 14.527051656582886 7.161394235194607
2359 1 27.37904058674338 14.707800681432788 9.1133824688534
2350 1 30.907482891980415 12.798815243191562 7.253658766160367
2352 1 29.061954553131162 12.691686291165865 9.101643915601835
2361 1 29.13751496727473 14.583765946362206 7.21158851135398
2363 1 30.84165839695628 14.635144654765046 9.073914552075015
2347 1 27.37438854210105 11.028831483408693 9.256242008431323
2351 1 30.810985256850323 10.954789519939181 9.027882436662273
2362 1 30.87044605530238 16.33454091400358 7.246848780562232
2307 1 23.702623903111892 21.67999934278055 5.519397110418739
2294 1 23.58201694686853 19.93996377646173 10.80138425033229
2320 1 21.82794338302813 16.453980429614475 5.494633598670942
2331 1 23.632519296540856 18.2086810372013 5.470014123875116
2343 1 23.75775261925553 21.711127574519928 9.113332152724446
2366 1 23.680333798431498 19.958732288977018 7.393070630237352
2367 1 23.578696271209427 18.129002013208254 8.989102213385248
2369 1 25.419912931777375 18.006642057290644 7.2100083844629
2372 1 25.6135321071032 19.881253342893153 9.153071587947213
2293 1 21.90789402282479 18.189834360561726 10.83065374325987
2370 1 27.12825805480124 20.007102108899993 7.273093690487348
2358 1 27.17333492951713 16.39942035734155 7.3415717780518515
2365 1 21.810026089823396 18.14539766244474 7.366271906075262
2371 1 27.233609801942215 18.083816891314846 9.205750277118605
2290 1 30.840670329818835 16.354141824201363 10.767318689196783
2349 1 28.96878625408992 21.636924183626512 7.221004641445557
2298 1 27.298092420720742 19.87149168972002 10.860672429295564
2301 1 29.172674827479213 18.101097456667134 10.851458250568449
2340 1 29.064532342613123 19.995721545281583 5.465134996656783
2364 1 29.091500340104023 16.369393479658704 8.957316460139648
2368 1 32.58467295538982 20.036243368964694 9.07145090659383
2373 1 29.03030310269718 18.157142495785926 7.164621662226667
2374 1 30.858555144912664 20.13303843793714 7.147780444051815
2375 1 30.972177792846345 18.113930906475645 9.071220221142651
2376 1 29.260502757624682 19.888847827938104 9.129883756113374
2384 1 25.489610537535448 12.631180356422398 12.724226713134925
2391 1 23.660999620368976 14.48945361540633 12.768438242667289
2414 1 23.511017218078717 12.608914777403722 14.369651233542118
2429 1 25.349470339869786 14.516174083069016 14.6189619725992
2420 1 25.321659834382764 12.665676473345213 16.275282914358215
2395 1 27.17300308153876 14.587763504491408 12.828442482143345
2413 1 21.858748505356463 10.930098366851523 14.568549979500187
2379 1 23.528279367767887 10.951484372670965 12.694270694555595
2392 1 21.81269712314034 16.303923533082475 12.634199738647398
2432 1 25.37414892749522 16.278257764314873 16.323756885885913
2390 1 23.6480037448951 16.259976430362087 10.966436082339829
2393 1 25.447132948402547 14.502301405384133 10.905836713366394
2427 1 23.59301368883121 14.481648994422718 16.318811668630147
2381 1 25.39913350149309 10.905377902157865 10.909719205605013
2380 1 32.56976215938211 12.77864284197009 12.759440252415072
2425 1 32.61862305441136 14.418807371092017 14.551622903221785
2418 1 27.362663577262808 12.700444630603663 14.541696511285277
2388 1 29.101227574461053 12.794287514004003 12.680559157838562
2399 1 30.892450862551975 14.5543090130923 12.635787826175768
2422 1 30.763387944896753 12.63345930411499 14.56402376153619
2433 1 28.97804094432483 14.478531942279478 14.602588036448488
2397 1 28.920046583643384 14.676538220755326 10.949379282104575
2435 1 30.704308827289147 14.533735112131343 16.301931319023485
2383 1 27.302224618691746 10.92612931904456 12.790840215684831
2387 1 30.972347624805096 10.978368459519638 12.727648043119
2382 1 27.36792065553393 12.744297300906988 11.000553424664924
2423 1 30.980317930545702 11.061631079908908 16.34990953322179
2417 1 25.431438013425144 21.792404161905836 14.459078848766383
2396 1 25.45682933124811 16.403256913213337 12.861311919806527
2394 1 27.19718149065687 16.35539086905371 10.955596935156986
2426 1 23.478025397319897 16.415665892166345 14.457071062416897
2403 1 23.51444534027203 18.18077381511708 12.755316663780768
2408 1 25.39038595264592 20.054621943896777 12.678053277430493
2438 1 23.65184981061215 19.9440460478405 14.61319983436025
2441 1 25.420521924293762 18.182495569800302 14.301942991036727
2404 1 21.935046775343476 19.989437864232087 12.679382465288999
2405 1 25.340294364385233 18.141919389837156 10.98932037735836
2419 1 27.196742467664727 21.754676173237883 16.329780077087328
2440 1 21.854707359314368 20.087428001695542 16.341227926132937
2444 1 25.51747160242956 19.980147220129442 16.293032854472653
2443 1 27.124319190000932 18.21608015036647 16.270611349356223
2430 1 27.286510388553964 16.400285970093112 14.67072064021603
2434 1 31.169744973763834 16.35655232034958 14.568328005662188
2437 1 32.68912094881929 18.242537914120987 14.506978017876714
2436 1 29.138900919269496 16.482469907844298 16.27876595538832
2442 1 27.302097189435315 19.985159402765696 14.402457334879816
2407 1 27.268332829295467 18.132003571221638 12.710256958260686
2400 1 29.13350059430074 16.41235875361293 12.818986981519641
2421 1 29.08952066311043 21.78974418332742 14.494415532782629
2411 1 30.912850796983378 18.204191668478945 12.553145738841001
2412 1 29.082340142219323 20.0516441083623 12.686838540086521
2445 1 29.172883616814854 18.20296786671051 14.558585713730517
2446 1 30.858796953608802 20.063993920841035 14.437370802694518
2410 1 31.051965901484216 20.025254814003933 10.963288361391959
2385 1 29.14323455653388 21.749439956634102 10.939347996595448
2447 1 30.90542278166135 18.212617442341912 16.335315974956224
2378 1 23.659172762020273 12.736073227175716 21.777940362056775
2450 1 23.688806860867455 12.613868534946581 18.126181816552183
2456 1 25.576613166593646 12.721754033251052 19.958846937716935
2463 1 23.56456937621248 14.452509221702908 19.98614302752425
2465 1 25.444553735423366 14.48940521781506 18.37245856211095
2453 1 25.544846188606243 11.009508843642905 18.289080964298364
2468 1 25.39965262238654 16.302866498491476 19.966288953715697
2464 1 21.85118337196667 16.257717420615094 20.088108655710624
2462 1 23.48663815769692 16.27298188390184 18.17472728866483
2449 1 21.849801082542182 10.939329818354697 18.16856704976224
2431 1 27.40358057292392 14.62684104610286 16.450941569359287
2389 1 32.57530326998581 14.461612409204104 21.780243726897282
2454 1 27.322132651324345 12.802702636237182 18.27689824196504
2377 1 32.61425198662409 10.967927166526518 21.793343784809473
2386 1 30.82311634424274 12.656385844483244 21.800438988187533
2424 1 29.02048084849268 12.662750150024005 16.549675646293235
2452 1 32.585803902058416 12.765696901912332 19.95430038858197
2416 1 32.6618962027596 12.759736792984805 16.430546525371934
2461 1 32.64048014997859 14.527051656582886 18.063994235194606
2467 1 27.37904058674338 14.707800681432788 20.0159824688534
2458 1 30.907482891980415 12.798815243191562 18.156258766160366
2460 1 29.061954553131162 12.691686291165865 20.004243915601833
2469 1 29.13751496727473 14.583765946362206 18.11418851135398
2471 1 30.84165839695628 14.635144654765046 19.976514552075017
2455 1 27.37438854210105 11.028831483408693 20.15884200843132
2459 1 30.810985256850323 10.954789519939181 19.930482436662274
2470 1 30.87044605530238 16.33454091400358 18.14944878056223
2415 1 23.702623903111892 21.67999934278055 16.421997110418737
2402 1 23.58201694686853 19.93996377646173 21.70398425033229
2428 1 21.82794338302813 16.453980429614475 16.39723359867094
2439 1 23.632519296540856 18.2086810372013 16.372614123875117
2451 1 23.75775261925553 21.711127574519928 20.015932152724446
2474 1 23.680333798431498 19.958732288977018 18.295670630237353
2475 1 23.578696271209427 18.129002013208254 19.891702213385248
2477 1 25.419912931777375 18.006642057290644 18.1126083844629
2480 1 25.6135321071032 19.881253342893153 20.055671587947213
2401 1 21.90789402282479 18.189834360561726 21.73325374325987
2478 1 27.12825805480124 20.007102108899993 18.17569369048735
2466 1 27.17333492951713 16.39942035734155 18.24417177805185
2473 1 21.810026089823396 18.14539766244474 18.268871906075262
2479 1 27.233609801942215 18.083816891314846 20.108350277118603
2398 1 30.840670329818835 16.354141824201363 21.669918689196784
2457 1 28.96878625408992 21.636924183626512 18.123604641445556
2406 1 27.298092420720742 19.87149168972002 21.76327242929556
2409 1 29.172674827479213 18.101097456667134 21.75405825056845
2448 1 29.064532342613123 19.995721545281583 16.367734996656782
2472 1 29.091500340104023 16.369393479658704 19.859916460139647
2476 1 32.58467295538982 20.036243368964694 19.97405090659383
2481 1 29.03030310269718 18.157142495785926 18.067221662226665
2482 1 30.858555144912664 20.13303843793714 18.050380444051815
2483 1 30.972177792846345 18.113930906475645 19.973820221142653
2484 1 29.260502757624682 19.888847827938104 20.032483756113372
2492 1 25.489610537535448 12.631180356422398 23.626826713134925
2499 1 23.660999620368976 14.48945361540633 23.67103824266729
2522 1 23.511017218078717 12.608914777403722 25.272251233542118
2537 1 25.349470339869786 14.516174083069016 25.5215619725992
2528 1 25.321659834382764 12.665676473345213 27.177882914358214
2503 1 27.17300308153876 14.587763504491408 23.731042482143344
2521 1 21.858748505356463 10.930098366851523 25.471149979500186
2487 1 23.528279367767887 10.951484372670965 23.596870694555594
2500 1 21.81269712314034 16.303923533082475 23.5367997386474
2540 1 25.37414892749522 16.278257764314873 27.226356885885913
2498 1 23.6480037448951 16.259976430362087 21.86903608233983
2501 1 25.447132948402547 14.502301405384133 21.808436713366394
2535 1 23.59301368883121 14.481648994422718 27.221411668630147
2489 1 25.39913350149309 10.905377902157865 21.812319205605014
2488 1 32.56976215938211 12.77864284197009 23.66204025241507
2533 1 32.61862305441136 14.418807371092017 25.454222903221783
2526 1 27.362663577262808 12.700444630603663 25.444296511285277
2496 1 29.101227574461053 12.794287514004003 23.583159157838562
2507 1 30.892450862551975 14.5543090130923 23.538387826175768
2530 1 30.763387944896753 12.63345930411499 25.46662376153619
2541 1 28.97804094432483 14.478531942279478 25.505188036448487
2505 1 28.920046583643384 14.676538220755326 21.851979282104576
2543 1 30.704308827289147 14.533735112131343 27.204531319023484
2491 1 27.302224618691746 10.92612931904456 23.69344021568483
2495 1 30.972347624805096 10.978368459519638 23.630248043119
2490 1 27.36792065553393 12.744297300906988 21.90315342466492
2531 1 30.980317930545702 11.061631079908908 27.25250953322179
2525 1 25.431438013425144 21.792404161905836 25.36167884876638
2504 1 25.45682933124811 16.403256913213337 23.763911919806528
2502 1 27.19718149065687 16.35539086905371 21.858196935156986
2534 1 23.478025397319897 16.415665892166345 25.359671062416897
2511 1 23.51444534027203 18.18077381511708 23.657916663780767
2516 1 25.39038595264592 20.054621943896777 23.580653277430493
2546 1 23.65184981061215 19.9440460478405 25.515799834360248
2549 1 25.420521924293762 18.182495569800302 25.20454299103673
2512 1 21.935046775343476 19.989437864232087 23.581982465289
2513 1 25.340294364385233 18.141919389837156 21.89192037735836
2527 1 27.196742467664727 21.754676173237883 27.232380077087328
2548 1 21.854707359314368 20.087428001695542 27.243827926132937
2552 1 25.51747160242956 19.980147220129442 27.195632854472652
2551 1 27.124319190000932 18.21608015036647 27.173211349356222
2538 1 27.286510388553964 16.400285970093112 25.573320640216032
2542 1 31.169744973763834 16.35655232034958 25.470928005662188
2545 1 32.68912094881929 18.242537914120987 25.40957801787671
2544 1 29.138900919269496 16.482469907844298 27.18136595538832
2550 1 27.302097189435315 19.985159402765696 25.305057334879816
2515 1 27.268332829295467 18.132003571221638 23.612856958260686
2508 1 29.13350059430074 16.41235875361293 23.72158698151964
2529 1 29.08952066311043 21.78974418332742 25.39701553278263
2519 1 30.912850796983378 18.204191668478945 23.455745738841003
2520 1 29.082340142219323 20.0516441083623 23.58943854008652
2553 1 29.172883616814854 18.20296786671051 25.461185713730515
2554 1 30.858796953608802 20.063993920841035 25.339970802694516
2518 1 31.051965901484216 20.025254814003933 21.865888361391956
2493 1 29.14323455653388 21.749439956634102 21.841947996595447
2555 1 30.90542278166135 18.212617442341912 27.237915974956223
2486 1 23.659172762020273 12.736073227175716 32.680540362056774
2558 1 23.688806860867455 12.613868534946581 29.028781816552183
2564 1 25.576613166593646 12.721754033251052 30.861446937716934
2571 1 23.56456937621248 14.452509221702908 30.88874302752425
2573 1 25.444553735423366 14.48940521781506 29.27505856211095
2561 1 25.544846188606243 11.009508843642905 29.191680964298364
2576 1 25.39965262238654 16.302866498491476 30.868888953715697
2572 1 21.85118337196667 16.257717420615094 30.990708655710623
2570 1 23.48663815769692 16.27298188390184 29.07732728866483
2557 1 21.849801082542182 10.939329818354697 29.071167049762238
2539 1 27.40358057292392 14.62684104610286 27.353541569359287
2497 1 32.57530326998581 14.461612409204104 32.68284372689728
2562 1 27.322132651324345 12.802702636237182 29.17949824196504
2485 1 32.61425198662409 10.967927166526518 32.69594378480947
2494 1 30.82311634424274 12.656385844483244 32.70303898818753
2532 1 29.02048084849268 12.662750150024005 27.452275646293234
2560 1 32.585803902058416 12.765696901912332 30.85690038858197
2524 1 32.6618962027596 12.759736792984805 27.333146525371934
2569 1 32.64048014997859 14.527051656582886 28.966594235194606
2575 1 27.37904058674338 14.707800681432788 30.9185824688534
2566 1 30.907482891980415 12.798815243191562 29.058858766160366
2568 1 29.061954553131162 12.691686291165865 30.906843915601833
2577 1 29.13751496727473 14.583765946362206 29.01678851135398
2579 1 30.84165839695628 14.635144654765046 30.879114552075016
2563 1 27.37438854210105 11.028831483408693 31.06144200843132
2567 1 30.810985256850323 10.954789519939181 30.833082436662274
2578 1 30.87044605530238 16.33454091400358 29.05204878056223
2523 1 23.702623903111892 21.67999934278055 27.324597110418736
2510 1 23.58201694686853 19.93996377646173 32.60658425033229
2536 1 21.82794338302813 16.453980429614475 27.29983359867094
2547 1 23.632519296540856 18.2086810372013 27.275214123875116
2559 1 23.75775261925553 21.711127574519928 30.918532152724445
2582 1 23.680333798431498 19.958732288977018 29.198270630237353
2583 1 23.578696271209427 18.129002013208254 30.794302213385247
2585 1 25.419912931777375 18.006642057290644 29.0152083844629
2588 1 25.6135321071032 19.881253342893153 30.958271587947213
2509 1 21.90789402282479 18.189834360561726 32.63585374325987
2586 1 27.12825805480124 20.007102108899993 29.07829369048735
2574 1 27.17333492951713 16.39942035734155 29.14677177805185
2581 1 21.810026089823396 18.14539766244474 29.17147190607526
2587 1 27.233609801942215 18.083816891314846 31.010950277118603
2506 1 30.840670329818835 16.354141824201363 32.572518689196784
2565 1 28.96878625408992 21.636924183626512 29.026204641445556
2514 1 27.298092420720742 19.87149168972002 32.66587242929556
2517 1 29.172674827479213 18.101097456667134 32.65665825056845
2556 1 29.064532342613123 19.995721545281583 27.270334996656782
2580 1 29.091500340104023 16.369393479658704 30.762516460139647
2584 1 32.58467295538982 20.036243368964694 30.87665090659383
2589 1 29.03030310269718 18.157142495785926 28.969821662226664
2590 1 30.858555144912664 20.13303843793714 28.952980444051814
2591 1 30.972177792846345 18.113930906475645 30.876420221142652
2592 1 29.260502757624682 19.888847827938104 30.93508375611337
2600 1 25.489610537535448 23.533780356422398 1.8216267131349257
2607 1 23.660999620368976 25.39205361540633 1.8658382426672893
2630 1 23.511017218078717 23.511514777403722 3.4670512335421195
2645 1 25.349470339869786 25.418774083069017 3.7163619725992008
2636 1 25.321659834382764 23.56827647334521 5.372682914358216
2611 1 27.17300308153876 25.49036350449141 1.9258424821433449
2629 1 21.858748505356463 21.832698366851524 3.665949979500187
2595 1 23.528279367767887 21.854084372670965 1.7916706945555958
2608 1 21.81269712314034 27.206523533082475 1.731599738647399
2648 1 25.37414892749522 27.180857764314872 5.421156885885914
2606 1 23.6480037448951 27.162576430362087 0.06383608233983
2609 1 25.447132948402547 25.404901405384134 0.003236713366393767
2643 1 23.59301368883121 25.38424899442272 5.4162116686301465
2597 1 25.39913350149309 21.807977902157866 0.007119205605014067
2596 1 32.56976215938211 23.68124284197009 1.8568402524150718
2641 1 32.61862305441136 25.321407371092018 3.649022903221786
2634 1 27.362663577262808 23.603044630603662 3.6390965112852767
2604 1 29.101227574461053 23.696887514004004 1.7779591578385623
2615 1 30.892450862551975 25.4569090130923 1.7331878261757692
2638 1 30.763387944896753 23.53605930411499 3.6614237615361898
2649 1 28.97804094432483 25.381131942279477 3.6999880364484876
2613 1 28.920046583643384 25.579138220755326 0.04677928210457576
2651 1 30.704308827289147 25.436335112131342 5.399331319023486
2599 1 27.302224618691746 21.82872931904456 1.8882402156848312
2603 1 30.972347624805096 21.88096845951964 1.8250480431190004
2598 1 27.36792065553393 23.646897300906986 0.09795342466492327
2639 1 30.980317930545702 21.964231079908906 5.44730953322179
2633 1 25.431438013425144 32.695004161905835 3.5564788487663836
2612 1 25.45682933124811 27.305856913213336 1.9587119198065277
2610 1 27.19718149065687 27.25799086905371 0.0529969351569869
2642 1 23.478025397319897 27.318265892166345 3.5544710624168983
2619 1 23.51444534027203 29.08337381511708 1.8527166637807677
2624 1 25.39038595264592 30.957221943896776 1.775453277430493
2654 1 23.65184981061215 30.8466460478405 3.71059983436025
2657 1 25.420521924293762 29.085095569800302 3.3993429910367277
2620 1 21.935046775343476 30.892037864232087 1.7767824652889994
2621 1 25.340294364385233 29.044519389837156 0.0867203773583603
2635 1 27.196742467664727 32.65727617323788 5.427180077087328
2656 1 21.854707359314368 30.990028001695542 5.438627926132937
2660 1 25.51747160242956 30.882747220129442 5.390432854472652
2659 1 27.124319190000932 29.11868015036647 5.368011349356221
2646 1 27.286510388553964 27.30288597009311 3.7681206402160314
2650 1 31.169744973763834 27.25915232034958 3.6657280056621877
2653 1 32.68912094881929 29.145137914120987 3.6043780178767135
2652 1 29.138900919269496 27.385069907844297 5.376165955388319
2658 1 27.302097189435315 30.887759402765695 3.4998573348798168
2623 1 27.268332829295467 29.034603571221638 1.8076569582606856
2616 1 29.13350059430074 27.31495875361293 1.9163869815196415
2637 1 29.08952066311043 32.69234418332742 3.591815532782629
2627 1 30.912850796983378 29.106791668478945 1.650545738841002
2628 1 29.082340142219323 30.9542441083623 1.7842385400865208
2661 1 29.172883616814854 29.10556786671051 3.6559857137305176
2662 1 30.858796953608802 30.966593920841035 3.5347708026945184
2626 1 31.051965901484216 30.927854814003933 0.06068836139195842
2601 1 29.14323455653388 32.6520399566341 0.036747996595448695
2663 1 30.90542278166135 29.115217442341912 5.432715974956223
2594 1 23.659172762020273 23.638673227175715 10.875340362056777
2666 1 23.688806860867455 23.51646853494658 7.2235818165521835
2672 1 25.576613166593646 23.624354033251052 9.056246937716937
2679 1 23.56456937621248 25.355109221702907 9.083543027524248
2681 1 25.444553735423366 25.392005217815058 7.469858562110948
2669 1 25.544846188606243 21.912108843642905 7.386480964298365
2684 1 25.39965262238654 27.205466498491475 9.0636889537157
2680 1 21.85118337196667 27.160317420615094 9.185508655710624
2678 1 23.48663815769692 27.175581883901838 7.27212728866483
2665 1 21.849801082542182 21.841929818354696 7.2659670497622395
2647 1 27.40358057292392 25.52944104610286 5.548341569359288
2605 1 32.57530326998581 25.364212409204104 10.877643726897285
2670 1 27.322132651324345 23.70530263623718 7.37429824196504
2593 1 32.61425198662409 21.870527166526518 10.890743784809471
2602 1 30.82311634424274 23.558985844483246 10.897838988187534
2640 1 29.02048084849268 23.565350150024006 5.647075646293236
2668 1 32.585803902058416 23.66829690191233 9.05170038858197
2632 1 32.6618962027596 23.662336792984803 5.527946525371934
2677 1 32.64048014997859 25.429651656582884 7.161394235194607
2683 1 27.37904058674338 25.610400681432786 9.1133824688534
2674 1 30.907482891980415 23.701415243191562 7.253658766160367
2676 1 29.061954553131162 23.594286291165865 9.101643915601835
2685 1 29.13751496727473 25.486365946362206 7.21158851135398
2687 1 30.84165839695628 25.537744654765046 9.073914552075015
2671 1 27.37438854210105 21.93143148340869 9.256242008431323
2675 1 30.810985256850323 21.857389519939183 9.027882436662273
2686 1 30.87044605530238 27.23714091400358 7.246848780562232
2631 1 23.702623903111892 32.582599342780554 5.519397110418739
2618 1 23.58201694686853 30.84256377646173 10.80138425033229
2644 1 21.82794338302813 27.356580429614475 5.494633598670942
2655 1 23.632519296540856 29.111281037201298 5.470014123875116
2667 1 23.75775261925553 32.61372757451993 9.113332152724446
2690 1 23.680333798431498 30.861332288977017 7.393070630237352
2691 1 23.578696271209427 29.031602013208254 8.989102213385248
2693 1 25.419912931777375 28.909242057290644 7.2100083844629
2696 1 25.6135321071032 30.783853342893153 9.153071587947213
2617 1 21.90789402282479 29.092434360561725 10.83065374325987
2694 1 27.12825805480124 30.909702108899992 7.273093690487348
2682 1 27.17333492951713 27.30202035734155 7.3415717780518515
2689 1 21.810026089823396 29.04799766244474 7.366271906075262
2695 1 27.233609801942215 28.986416891314846 9.205750277118605
2614 1 30.840670329818835 27.256741824201363 10.767318689196783
2673 1 28.96878625408992 32.53952418362651 7.221004641445557
2622 1 27.298092420720742 30.77409168972002 10.860672429295564
2625 1 29.172674827479213 29.003697456667133 10.851458250568449
2664 1 29.064532342613123 30.898321545281583 5.465134996656783
2688 1 29.091500340104023 27.271993479658704 8.957316460139648
2692 1 32.58467295538982 30.938843368964694 9.07145090659383
2697 1 29.03030310269718 29.059742495785926 7.164621662226667
2698 1 30.858555144912664 31.03563843793714 7.147780444051815
2699 1 30.972177792846345 29.016530906475644 9.071220221142651
2700 1 29.260502757624682 30.791447827938104 9.129883756113374
2708 1 25.489610537535448 23.533780356422398 12.724226713134925
2715 1 23.660999620368976 25.39205361540633 12.768438242667289
2738 1 23.511017218078717 23.511514777403722 14.369651233542118
2753 1 25.349470339869786 25.418774083069017 14.6189619725992
2744 1 25.321659834382764 23.56827647334521 16.275282914358215
2719 1 27.17300308153876 25.49036350449141 12.828442482143345
2737 1 21.858748505356463 21.832698366851524 14.568549979500187
2703 1 23.528279367767887 21.854084372670965 12.694270694555595
2716 1 21.81269712314034 27.206523533082475 12.634199738647398
2756 1 25.37414892749522 27.180857764314872 16.323756885885913
2714 1 23.6480037448951 27.162576430362087 10.966436082339829
2717 1 25.447132948402547 25.404901405384134 10.905836713366394
2751 1 23.59301368883121 25.38424899442272 16.318811668630147
2705 1 25.39913350149309 21.807977902157866 10.909719205605013
2704 1 32.56976215938211 23.68124284197009 12.759440252415072
2749 1 32.61862305441136 25.321407371092018 14.551622903221785
2742 1 27.362663577262808 23.603044630603662 14.541696511285277
2712 1 29.101227574461053 23.696887514004004 12.680559157838562
2723 1 30.892450862551975 25.4569090130923 12.635787826175768
2746 1 30.763387944896753 23.53605930411499 14.56402376153619
2757 1 28.97804094432483 25.381131942279477 14.602588036448488
2721 1 28.920046583643384 25.579138220755326 10.949379282104575
2759 1 30.704308827289147 25.436335112131342 16.301931319023485
2707 1 27.302224618691746 21.82872931904456 12.790840215684831
2711 1 30.972347624805096 21.88096845951964 12.727648043119
2706 1 27.36792065553393 23.646897300906986 11.000553424664924
2747 1 30.980317930545702 21.964231079908906 16.34990953322179
2741 1 25.431438013425144 32.695004161905835 14.459078848766383
2720 1 25.45682933124811 27.305856913213336 12.861311919806527
2718 1 27.19718149065687 27.25799086905371 10.955596935156986
2750 1 23.478025397319897 27.318265892166345 14.457071062416897
2727 1 23.51444534027203 29.08337381511708 12.755316663780768
2732 1 25.39038595264592 30.957221943896776 12.678053277430493
2762 1 23.65184981061215 30.8466460478405 14.61319983436025
2765 1 25.420521924293762 29.085095569800302 14.301942991036727
2728 1 21.935046775343476 30.892037864232087 12.679382465288999
2729 1 25.340294364385233 29.044519389837156 10.98932037735836
2743 1 27.196742467664727 32.65727617323788 16.329780077087328
2764 1 21.854707359314368 30.990028001695542 16.341227926132937
2768 1 25.51747160242956 30.882747220129442 16.293032854472653
2767 1 27.124319190000932 29.11868015036647 16.270611349356223
2754 1 27.286510388553964 27.30288597009311 14.67072064021603
2758 1 31.169744973763834 27.25915232034958 14.568328005662188
2761 1 32.68912094881929 29.145137914120987 14.506978017876714
2760 1 29.138900919269496 27.385069907844297 16.27876595538832
2766 1 27.302097189435315 30.887759402765695 14.402457334879816
2731 1 27.268332829295467 29.034603571221638 12.710256958260686
2724 1 29.13350059430074 27.31495875361293 12.818986981519641
2745 1 29.08952066311043 32.69234418332742 14.494415532782629
2735 1 30.912850796983378 29.106791668478945 12.553145738841001
2736 1 29.082340142219323 30.9542441083623 12.686838540086521
2769 1 29.172883616814854 29.10556786671051 14.558585713730517
2770 1 30.858796953608802 30.966593920841035 14.437370802694518
2734 1 31.051965901484216 30.927854814003933 10.963288361391959
2709 1 29.14323455653388 32.6520399566341 10.939347996595448
2771 1 30.90542278166135 29.115217442341912 16.335315974956224
2702 1 23.659172762020273 23.638673227175715 21.777940362056775
2774 1 23.688806860867455 23.51646853494658 18.126181816552183
2780 1 25.576613166593646 23.624354033251052 19.958846937716935
2787 1 23.56456937621248 25.355109221702907 19.98614302752425
2789 1 25.444553735423366 25.392005217815058 18.37245856211095
2777 1 25.544846188606243 21.912108843642905 18.289080964298364
2792 1 25.39965262238654 27.205466498491475 19.966288953715697
2788 1 21.85118337196667 27.160317420615094 20.088108655710624
2786 1 23.48663815769692 27.175581883901838 18.17472728866483
2773 1 21.849801082542182 21.841929818354696 18.16856704976224
2755 1 27.40358057292392 25.52944104610286 16.450941569359287
2713 1 32.57530326998581 25.364212409204104 21.780243726897282
2778 1 27.322132651324345 23.70530263623718 18.27689824196504
2701 1 32.61425198662409 21.870527166526518 21.793343784809473
2710 1 30.82311634424274 23.558985844483246 21.800438988187533
2748 1 29.02048084849268 23.565350150024006 16.549675646293235
2776 1 32.585803902058416 23.66829690191233 19.95430038858197
2740 1 32.6618962027596 23.662336792984803 16.430546525371934
2785 1 32.64048014997859 25.429651656582884 18.063994235194606
2791 1 27.37904058674338 25.610400681432786 20.0159824688534
2782 1 30.907482891980415 23.701415243191562 18.156258766160366
2784 1 29.061954553131162 23.594286291165865 20.004243915601833
2793 1 29.13751496727473 25.486365946362206 18.11418851135398
2795 1 30.84165839695628 25.537744654765046 19.976514552075017
2779 1 27.37438854210105 21.93143148340869 20.15884200843132
2783 1 30.810985256850323 21.857389519939183 19.930482436662274
2794 1 30.87044605530238 27.23714091400358 18.14944878056223
2739 1 23.702623903111892 32.582599342780554 16.421997110418737
2726 1 23.58201694686853 30.84256377646173 21.70398425033229
2752 1 21.82794338302813 27.356580429614475 16.39723359867094
2763 1 23.632519296540856 29.111281037201298 16.372614123875117
2775 1 23.75775261925553 32.61372757451993 20.015932152724446
2798 1 23.680333798431498 30.861332288977017 18.295670630237353
2799 1 23.578696271209427 29.031602013208254 19.891702213385248
2801 1 25.419912931777375 28.909242057290644 18.1126083844629
2804 1 25.6135321071032 30.783853342893153 20.055671587947213
2725 1 21.90789402282479 29.092434360561725 21.73325374325987
2802 1 27.12825805480124 30.909702108899992 18.17569369048735
2790 1 27.17333492951713 27.30202035734155 18.24417177805185
2797 1 21.810026089823396 29.04799766244474 18.268871906075262
2803 1 27.233609801942215 28.986416891314846 20.108350277118603
2722 1 30.840670329818835 27.256741824201363 21.669918689196784
2781 1 28.96878625408992 32.53952418362651 18.123604641445556
2730 1 27.298092420720742 30.77409168972002 21.76327242929556
2733 1 29.172674827479213 29.003697456667133 21.75405825056845
2772 1 29.064532342613123 30.898321545281583 16.367734996656782
2796 1 29.091500340104023 27.271993479658704 19.859916460139647
2800 1 32.58467295538982 30.938843368964694 19.97405090659383
2805 1 29.03030310269718 29.059742495785926 18.067221662226665
2806 1 30.858555144912664 31.03563843793714 18.050380444051815
2807 1 30.972177792846345 29.016530906475644 19.973820221142653
2808 1 29.260502757624682 30.791447827938104 20.032483756113372
2816 1 25.489610537535448 23.533780356422398 23.626826713134925
2823 1 23.660999620368976 25.39205361540633 23.67103824266729
2846 1 23.511017218078717 23.511514777403722 25.272251233542118
2861 1 25.349470339869786 25.418774083069017 25.5215619725992
2852 1 25.321659834382764 23.56827647334521 27.177882914358214
2827 1 27.17300308153876 25.49036350449141 23.731042482143344
2845 1 21.858748505356463 21.832698366851524 25.471149979500186
2811 1 23.528279367767887 21.854084372670965 23.596870694555594
2824 1 21.81269712314034 27.206523533082475 23.5367997386474
2864 1 25.37414892749522 27.180857764314872 27.226356885885913
2822 1 23.6480037448951 27.162576430362087 21.86903608233983
2825 1 25.447132948402547 25.404901405384134 21.808436713366394
2859 1 23.59301368883121 25.38424899442272 27.221411668630147
2813 1 25.39913350149309 21.807977902157866 21.812319205605014
2812 1 32.56976215938211 23.68124284197009 23.66204025241507
2857 1 32.61862305441136 25.321407371092018 25.454222903221783
2850 1 27.362663577262808 23.603044630603662 25.444296511285277
2820 1 29.101227574461053 23.696887514004004 23.583159157838562
2831 1 30.892450862551975 25.4569090130923 23.538387826175768
2854 1 30.763387944896753 23.53605930411499 25.46662376153619
2865 1 28.97804094432483 25.381131942279477 25.505188036448487
2829 1 28.920046583643384 25.579138220755326 21.851979282104576
2867 1 30.704308827289147 25.436335112131342 27.204531319023484
2815 1 27.302224618691746 21.82872931904456 23.69344021568483
2819 1 30.972347624805096 21.88096845951964 23.630248043119
2814 1 27.36792065553393 23.646897300906986 21.90315342466492
2855 1 30.980317930545702 21.964231079908906 27.25250953322179
2849 1 25.431438013425144 32.695004161905835 25.36167884876638
2828 1 25.45682933124811 27.305856913213336 23.763911919806528
2826 1 27.19718149065687 27.25799086905371 21.858196935156986
2858 1 23.478025397319897 27.318265892166345 25.359671062416897
2835 1 23.51444534027203 29.08337381511708 23.657916663780767
2840 1 25.39038595264592 30.957221943896776 23.580653277430493
2870 1 23.65184981061215 30.8466460478405 25.515799834360248
2873 1 25.420521924293762 29.085095569800302 25.20454299103673
2836 1 21.935046775343476 30.892037864232087 23.581982465289
2837 1 25.340294364385233 29.044519389837156 21.89192037735836
2851 1 27.196742467664727 32.65727617323788 27.232380077087328
2872 1 21.854707359314368 30.990028001695542 27.243827926132937
2876 1 25.51747160242956 30.882747220129442 27.195632854472652
2875 1 27.124319190000932 29.11868015036647 27.173211349356222
2862 1 27.286510388553964 27.30288597009311 25.573320640216032
2866 1 31.169744973763834 27.25915232034958 25.470928005662188
2869 1 32.68912094881929 29.145137914120987 25.40957801787671
2868 1 29.138900919269496 27.385069907844297 27.18136595538832
2874 1 27.302097189435315 30.887759402765695 25.305057334879816
2839 1 27.268332829295467 29.034603571221638 23.612856958260686
2832 1 29.13350059430074 27.31495875361293 23.72158698151964
2853 1 29.08952066311043 32.69234418332742 25.39701553278263
2843 1 30.912850796983378 29.106791668478945 23.455745738841003
2844 1 29.082340142219323 30.9542441083623 23.58943854008652
2877 1 29.172883616814854 29.10556786671051 25.461185713730515
2878 1 30.858796953608802 30.966593920841035 25.339970802694516
2842 1 31.051965901484216 30.927854814003933 21.865888361391956
2817 1 29.14323455653388 32.6520399566341 21.841947996595447
2879 1 30.90542278166135 29.115217442341912 27.237915974956223
2810 1 23.659172762020273 23.638673227175715 32.680540362056774
2882 1 23.688806860867455 23.51646853494658 29.028781816552183
2888 1 25.576613166593646 23.624354033251052 30.861446937716934
2895 1 23.56456937621248 25.355109221702907 30.88874302752425
2897 1 25.444553735423366 25.392005217815058 29.27505856211095
2885 1 25.544846188606243 21.912108843642905 29.191680964298364
2900 1 25.39965262238654 27.205466498491475 30.868888953715697
2896 1 21.85118337196667 27.160317420615094 30.990708655710623
2894 1 23.48663815769692 27.175581883901838 29.07732728866483
2881 1 21.849801082542182 21.841929818354696 29.071167049762238
2863 1 27.40358057292392 25.52944104610286 27.353541569359287
2821 1 32.57530326998581 25.364212409204104 32.68284372689728
2886 1 27.322132651324345 23.70530263623718 29.17949824196504
2809 1 32.61425198662409 21.870527166526518 32.69594378480947
2818 1 30.82311634424274 23.558985844483246 32.70303898818753
2856 1 29.02048084849268 23.565350150024006 27.452275646293234
2884 1 32.585803902058416 23.66829690191233 30.85690038858197
2848 1 32.6618962027596 23.662336792984803 27.333146525371934
2893 1 32.64048014997859 25.429651656582884 28.966594235194606
2899 1 27.37904058674338 25.610400681432786 30.9185824688534
2890 1 30.907482891980415 23.701415243191562 29.058858766160366
2892 1 29.061954553131162 23.594286291165865 30.906843915601833
2901 1 29.13751496727473 25.486365946362206 29.01678851135398
2903 1 30.84165839695628 25.537744654765046 30.879114552075016
2887 1 27.37438854210105 21.93143148340869 31.06144200843132
2891 1 30.810985256850323 21.857389519939183 30.833082436662274
2902 1 30.87044605530238 27.23714091400358 29.05204878056223
2847 1 23.702623903111892 32.582599342780554 27.324597110418736
2834 1 23.58201694686853 30.84256377646173 32.60658425033229
2860 1 21.82794338302813 27.356580429614475 27.29983359867094
2871 1 23.632519296540856 29.111281037201298 27.275214123875116
2883 1 23.75775261925553 32.61372757451993 30.918532152724445
2906 1 23.680333798431498 30.861332288977017 29.198270630237353
2907 1 23.578696271209427 29.031602013208254 30.794302213385247
2909 1 25.419912931777375 28.909242057290644 29.0152083844629
2912 1 25.6135321071032 30.783853342893153 30.958271587947213
2833 1 21.90789402282479 29.092434360561725 32.63585374325987
2910 1 27.12825805480124 30.909702108899992 29.07829369048735
2898 1 27.17333492951713 27.30202035734155 29.14677177805185
2905 1 21.810026089823396 29.04799766244474 29.17147190607526
2911 1 27.233609801942215 28.986416891314846 31.010950277118603
2830 1 30.840670329818835 27.256741824201363 32.572518689196784
2889 1 28.96878625408992 32.53952418362651 29.026204641445556
2838 1 27.298092420720742 30.77409168972002 32.66587242929556
2841 1 29.172674827479213 29.003697456667133 32.65665825056845
2880 1 29.064532342613123 30.898321545281583 27.270334996656782
2904 1 29.091500340104023 27.271993479658704 30.762516460139647
2908 1 32.58467295538982 30.938843368964694 30.87665090659383
2913 1 29.03030310269718 29.059742495785926 28.969821662226664
2914 1 30.858555144912664 31.03563843793714 28.952980444051814
2915 1 30.972177792846345 29.016530906475644 30.876420221142652
2916 1 29.260502757624682 30.791447827938104 30.93508375611337

Velocities

8 0.0 0.0 0.0
15 0.0 0.0 0.0
38 0.0 0.0 0.0
53 0.0 0.0 0.0
44 0.0 0.0 0.0
19 0.0 0.0 0.0
37 0.0 0.0 0.0
3 0.0 0.0 0.0
16 0.0 0.0 0.0
56 0.0 0.0 0.0
14 0.0 0.0 0.0
17 0.0 0.0 0.0
51 0.0 0.0 0.0
5 0.0 0.0 0.0
4 0.0 0.0 0.0
49 0.0 0.0 0.0
42 0.0 0.0 0.0
12 0.0 0.0 0.0
23 0.0 0.0 0.0
46 0.0 0.0 0.0
57 0.0 0.0 0.0
21 0.0 0.0 0.0
59 0.0 0.0 0.0
7 0.0 0.0 0.0
11 0.0 0.0 0.0
6 0.0 0.0 0.0
47 0.0 0.0 0.0
41 0.0 0.0 0.0
20 0.0 0.0 0.0
18 0.0 0.0 0.0
50 0.0 0.0 0.0
27 0.0 0.0 0.0
32 0.0 0.0 0.0
62 0.0 0.0 0.0
65 0.0 0.0 0.0
28 0.0 0.0 0.0
29 0.0 0.0 0.0
43 0.0 0.0 0.0
64 0.0 0.0 0.0
68 0.0 0.0 0.0
67 0.0 0.0 0.0
54 0.0 0.0 0.0
58 0.0 0.0 0.0
61 0.0 0.0 0.0
60 0.0 0.0 0.0
66 0.0 0.0 0.0
31 0.0 0.0 0.0
24 0.0 0.0 0.0
45 0.0 0.0 0.0
35 0.0 0.0 0.0
36 0.0 0.0 0.0
69 0.0 0.0 0.0
70 0.0 0.0 0.0
34 0.0 0.0 0.0
9 0.0 0.0 0.0
71 0.0 0.0 0.0
2 0.0 0.0 0.0
74 0.0 0.0 0.0
80 0.0 0.0 0.0
87 0.0 0.0 0.0
89 0.0 0.0 0.0
77 0.0 0.0 0.0
92 0.0 0.0 0.0
88 0.0 0.0 0.0
86 0.0 0.0 0.0
73 0.0 0.0 0.0
55 0.0 0.0 0.0
13 0.0 0.0 0.0
78 0.0 0.0 0.0
1 0.0 0.0 0.0
10 0.0 0.0 0.0
48 0.0 0.0 0.0
76 0.0 0.0 0.0
40 0.0 0.0 0.0
85 0.0 0.0 0.0
91 0.0 0.0 0.0
82 0.0 0.0 0.0
84 0.0 0.0 0.0
93 0.0 0.0 0.0
95 0.0 0.0 0.0
79 0.0 0.0 0.0
83 0.0 0.0 0.0
94 0.0 0.0 0.0
39 0.0 0.0 0.0
26 0.0 0.0 0.0
52 0.0 0.0 0.0
63 0.0 0.0 0.0
75 0.0 0.0 0.0
98 0.0 0.0 0.0
99 0.0 0.0 0.0
101 0.0 0.0 0.0
104 0.0 0.0 0.0
25 0.0 0.0 0.0
102 0.0 0.0 0.0
90 0.0 0.0 0.0
97 0.0 0.0 0.0
103 0.0 0.0 0.0
22 0.0 0.0 0.0
81 0.0 0.0 0.0
30 0.0 0.0 0.0
33 0.0 0.0 0.0
72 0.0 0.0 0.0
96 0.0 0.0 0.0
100 0.0 0.0 0.0
105 0.0 0.0 0.0
106 0.0 0.0 0.0
107 0.0 0.0 0.0
108 0.0 0.0 0.0
116 0.0 0.0 0.0
123 0.0 0.0 0.0
146 0.0 0.0 0.0
161 0.0 0.0 0.0
152 0.0 0.0 0.0
127 0.0 0.0 0.0
145 0.0 0.0 0.0
111 0.0 0.0 0.0
124 0.0 0.0 0.0
164 0.0 0.0 0.0
122 0.0 0.0 0.0
125 0.0 0.0 0.0
159 0.0 0.0 0.0
113 0.0 0.0 0.0
112 0.0 0.0 0.0
157 0.0 0.0 0.0
150 0.0 0.0 0.0
120 0.0 0.0 0.0
131 0.0 0.0 0.0
154 0.0 0.0 0.0
165 0.0 0.0 0.0
129 0.0 0.0 0.0
167 0.0 0.0 0.0
115 0.0 0.0 0.0
119 0.0 0.0 0.0
114 0.0 0.0 0.0
155 0.0 0.0 0.0
149 0.0 0.0 0.0
128 0.0 0.0 0.0
126 0.0 0.0 0.0
158 0.0 0.0 0.0
135 0.0 0.0 0.0
140 0.0 0.0 0.0
170 0.0 0.0 0.0
173 0.0 0.0 0.0
136 0.0 0.0 0.0
137 0.0 0.0 0.0
151 0.0 0.0 0.0
172 0.0 0.0 0.0
176 0.0 0.0 0.0
175 0.0 0.0 0.0
162 0.0 0.0 0.0
166 0.0 0.0 0.0
169 0.0 0.0 0.0
168 0.0 0.0 0.0
174 0.0 0.0 0.0
139 0.0 0.0 0.0
132 0.0 0.0 0.0
153 0.0 0.0 0.0
143 0.0 0.0 0.0
144 0.0 0.0 0.0
177 0.0 0.0 0.0
178 0.0 0.0 0.0
142 0.0 0.0 0.0
117 0.0 0.0 0.0
179 0.0 0.0 0.0
110 0.0 0.0 0.0
182 0.0 0.0 0.0
188 0.0 0.0 0.0
195 0.0 0.0 0.0
197 0.0 0.0 0.0
185 0.0 0.0 0.0
200 0.0 0.0 0.0
196 0.0 0.0 0.0
194 0.0 0.0 0.0
181 0.0 0.0 0.0
163 0.0 0.0 0.0
121 0.0 0.0 0.0
186 0.0 0.0 0.0
109 0.0 0.0 0.0
118 0.0 0.0 0.0
156 0.0 0.0 0.0
184 0.0 0.0 0.0
148 0.0 0.0 0.0
193 0.0 0.0 0.0
199 0.0 0.0 0.0
190 0.0 0.0 0.0
192 0.0 0.0 0.0
201 0.0 0.0 0.0
203 0.0 0.0 0.0
187 0.0 0.0 0.0
191 0.0 0.0 0.0
202 0.0 0.0 0.0
147 0.0 0.0 0.0
134 0.0 0.0 0.0
160 0.0 0.0 0.0
171 0.0 0.0 0.0
183 0.0 0.0 0.0
206 0.0 0.0 0.0
207 0.0 0.0 0.0
209 0.0 0.0 0.0
212 0.0 0.0 0.0
133 0.0 0.0 0.0
210 0.0 0.0 0.0
198 0.0 0.0 0.0
205 0.0 0.0 0.0
211 0.0 0.0 0.0
130 0.0 0.0 0.0
189 0.0 0.0 0.0
138 0.0 0.0 0.0
141 0.0 0.0 0.0
180 0.0 0.0 0.0
204 0.0 0.0 0.0
208 0.0 0.0 0.0
213 0.0 0.0 0.0
214 0.0 0.0 0.0
215 0.0 0.0 0.0
216 0.0 0.0 0.0
224 0.0 0.0 0.0
231 0.0 0.0 0.0
254 0.0 0.0 0.0
269 0.0 0.0 0.0
260 0.0 0.0 0.0
235 0.0 0.0 0.0
253 0.0 0.0 0.0
219 0.0 0.0 0.0
232 0.0 0.0 0.0
272 0.0 0.0 0.0
230 0.0 0.0 0.0
233 0.0 0.0 0.0
267 0.0 0.0 0.0
221 0.0 0.0 0.0
220 0.0 0.0 0.0
265 0.0 0.0 0.0
258 0.0 0.0 0.0
228 0.0 0.0 0.0
239 0.0 0.0 0.0
262 0.0 0.0 0.0
273 0.0 0.0 0.0
237 0.0 0.0 0.0
275 0.0 0.0 0.0
223 0.0 0.0 0.0
227 0.0 0.0 0.0
222 0.0 0.0 0.0
263 0.0 0.0 0.0
257 0.0 0.0 0.0
236 0.0 0.0 0.0
234 0.0 0.0 0.0
266 0.0 0.0 0.0
243 0.0 0.0 0.0
248 0.0 0.0 0.0
278 0.0 0.0 0.0
281 0.0 0.0 0.0
244 0.0 0.0 0.0
245 0.0 0.0 0.0
259 0.0 0.0 0.0
280 0.0 0.0 0.0
284 0.0 0.0 0.0
283 0.0 0.0 0.0
270 0.0 0.0 0.0
274 0.0 0.0 0.0
277 0.0 0.0 0.0
276 0.0 0.0 0.0
282 0.0 0.0 0.0
247 0.0 0.0 0.0
240 0.0 0.0 0.0
261 0.0 0.0 0.0
251 0.0 0.0 0.0
252 0.0 0.0 0.0
285 0.0 0.0 0.0
286 0.0 0.0 0.0
250 0.0 0.0 0.0
225 0.0 0.0 0.0
287 0.0 0.0 0.0
218 0.0 0.0 0.0
290 0.0 0.0 0.0
296 0.0 0.0 0.0
303 0.0 0.0 0.0
305 0.0 0.0 0.0
293 0.0 0.0 0.0
308 0.0 0.0 0.0
304 0.0 0.0 0.0
302 0.0 0.0 0.0
289 0.0 0.0 0.0
271 0.0 0.0 0.0
229 0.0 0.0 0.0
294 0.0 0.0 0.0
217 0.0 0.0 0.0
226 0.0 0.0 0.0
264 0.0 0.0 0.0
292 0.0 0.0 0.0
256 0.0 0.0 0.0
301 0.0 0.0 0.0
307 0.0 0.0 0.0
298 0.0 0.0 0.0
300 0.0 0.0 0.0
309 0.0 0.0 0.0
311 0.0 0.0 0.0
295 0.0 0.0 0.0
299 0.0 0.0 0.0
310 0.0 0.0 0.0
255 0.0 0.0 0.0
242 0.0 0.0 0.0
268 0.0 0.0 0.0
279 0.0 0.0 0.0
291 0.0 0.0 0.0
314 0.0 0.0 0.0
315 0.0 0.0 0.0
317 0.0 0.0 0.0
320 0.0 0.0 0.0
241 0.0 0.0 0.0
318 0.0 0.0 0.0
306 0.0 0.0 0.0
313 0.0 0.0 0.0
319 0.0 0.0 0.0
238 0.0 0.0 0.0
297 0.0 0.0 0.0
246 0.0 0.0 0.0
249 0.0 0.0 0.0
288 0.0 0.0 0.0
312 0.0 0.0 0.0
316 0.0 0.0 0.0
321 0.0 0.0 0.0
322 0.0 0.0 0.0
323 0.0 0.0 0.0
324 0.0 0.0 0.0
332 0.0 0.0 0.0
339 0.0 0.0 0.0
362 0.0 0.0 0.0
377 0.0 0.0 0.0
368 0.0 0.0 0.0
343 0.0 0.0 0.0
361 0.0 0.0 0.0
327 0.0 0.0 0.0
340 0.0 0.0 0.0
380 0.0 0.0 0.0
338 0.0 0.0 0.0
341 0.0 0.0 0.0
375 0.0 0.0 0.0
329 0.0 0.0 0.0
328 0.0 0.0 0.0
373 0.0 0.0 0.0
366 0.0 0.0 0.0
336 0.0 0.0 0.0
347 0.0 0.0 0.0
370 0.0 0.0 0.0
381 0.0 0.0 0.0
345 0.0 0.0 0.0
383 0.0 0.0 0.0
331 0.0 0.0 0.0
335 0.0 0.0 0.0
330 0.0 0.0 0.0
371 0.0 0.0 0.0
365 0.0 0.0 0.0
344 0.0 0.0 0.0
342 0.0 0.0 0.0
374 0.0 0.0 0.0
351 0.0 0.0 0.0
356 0.0 0.0 0.0
386 0.0 0.0 0.0
389 0.0 0.0 0.0
352 0.0 0.0 0.0
353 0.0 0.0 0.0
367 0.0 0.0 0.0
388 0.0 0.0 0.0
392 0.0 0.0 0.0
391 0.0 0.0 0.0
378 0.0 0.0 0.0
382 0.0 0.0 0.0
385 0.0 0.0 0.0
384 0.0 0.0 0.0
390 0.0 0.0 0.0
355 0.0 0.0 0.0
348 0.0 0.0 0.0
369 0.0 0.0 0.0
359 0.0 0.0 0.0
360 0.0 0.0 0.0
393 0.0 0.0 0.0
394 0.0 0.0 0.0
358 0.0 0.0 0.0
333 0.0 0.0 0.0
395 0.0 0.0 0.0
326 0.0 0.0 0.0
398 0.0 0.0 0.0
404 0.0 0.0 0.0
411 0.0 0.0 0.0
413 0.0 0.0 0.0
401 0.0 0.0 0.0
416 0.0 0.0 0.0
412 0.0 0.0 0.0
410 0.0 0.0 0.0
397 0.0 0.0 0.0
379 0.0 0.0 0.0
337 0.0 0.0 0.0
402 0.0 0.0 0.0
325 0.0 0.0 0.0
334 0.0 0.0 0.0
372 0.0 0.0 0.0
400 0.0 0.0 0.0
364 0.0 0.0 0.0
409 0.0 0.0 0.0
415 0.0 0.0 0.0
406 0.0 0.0 0.0
408 0.0 0.0 0.0
417 0.0 0.0 0.0
419 0.0 0.0 0.0
403 0.0 0.0 0.0
407 0.0 0.0 0.0
418 0.0 0.0 0.0
363 0.0 0.0 0.0
350 0.0 0.0 0.0
376 0.0 0.0 0.0
387 0.0 0.0 0.0
399 0.0 0.0 0.0
422 0.0 0.0 0.0
423 0.0 0.0 0.0
425 0.0 0.0 0.0
428 0.0 0.0 0.0
349 0.0 0.0 0.0
426 0.0 0.0 0.0
414 0.0 0.0 0.0
421 0.0 0.0 0.0
427 0.0 0.0 0.0
346 0.0 0.0 0.0
405 0.0 0.0 0.0
354 0.0 0.0 0.0
357 0.0 0.0 0.0
396 0.0 0.0 0.0
420 0.0 0.0 0.0
424 0.0 0.0 0.0
429 0.0 0.0 0.0
430 0.0 0.0 0.0
431 0.0 0.0 0.0
432 0.0 0.0 0.0
440 0.0 0.0 0.0
447 0.0 0.0 0.0
470 0.0 0.0 0.0
485 0.0 0.0 0.0
476 0.0 0.0 0.0
451 0.0 0.0 0.0
469 0.0 0.0 0.0
435 0.0 0.0 0.0
448 0.0 0.0 0.0
488 0.0 0.0 0.0
446 0.0 0.0 0.0
449 0.0 0.0 0.0
483 0.0 0.0 0.0
437 0.0 0.0 0.0
436 0.0 0.0 0.0
481 0.0 0.0 0.0
474 0.0 0.0 0.0
444 0.0 0.0 0.0
455 0.0 0.0 0.0
478 0.0 0.0 0.0
489 0.0 0.0 0.0
453 0.0 0.0 0.0
491 0.0 0.0 0.0
439 0.0 0.0 0.0
443 0.0 0.0 0.0
438 0.0 0.0 0.0
479 0.0 0.0 0.0
473 0.0 0.0 0.0
452 0.0 0.0 0.0
450 0.0 0.0 0.0
482 0.0 0.0 0.0
459 0.0 0.0 0.0
464 0.0 0.0 0.0
494 0.0 0.0 0.0
497 0.0 0.0 0.0
460 0.0 0.0 0.0
461 0.0 0.0 0.0
475 0.0 0.0 0.0
496 0.0 0.0 0.0
500 0.0 0.0 0.0
499 0.0 0.0 0.0
486 0.0 0.0 0.0
490 0.0 0.0 0.0
493 0.0 0.0 0.0
492 0.0 0.0 0.0
498 0.0 0.0 0.0
463 0.0 0.0 0.0
456 0.0 0.0 0.0
477 0.0 0.0 0.0
467 0.0 0.0 0.0
468 0.0 0.0 0.0
501 0.0 0.0 0.0
502 0.0 0.0 0.0
466 0.0 0.0 0.0
441 0.0 0.0 0.0
503 0.0 0.0 0.0
434 0.0 0.0 0.0
506 0.0 0.0 0.0
512 0.0 0.0 0.0
519 0.0 0.0 0.0
521 0.0 0.0 0.0
509 0.0 0.0 0.0
524 0.0 0.0 0.0
520 0.0 0.0 0.0
518 0.0 0.0 0.0
505 0.0 0.0 0.0
487 0.0 0.0 0.0
445 0.0 0.0 0.0
510 0.0 0.0 0.0
433 0.0 0.0 0.0
442 0.0 0.0 0.0
480 0.0 0.0 0.0
508 0.0 0.0 0.0
472 0.0 0.0 0.0
517 0.0 0.0 0.0
523 0.0 0.0 0.0
514 0.0 0.0 0.0
516 0.0 0.0 0.0
525 0.0 0.0 0.0
527 0.0 0.0 0.0
511 0.0 0.0 0.0
515 0.0 0.0 0.0
526 0.0 0.0 0.0
471 0.0 0.0 0.0
458 0.0 0.0 0.0
484 0.0 0.0 0.0
495 0.0 0.0 0.0
507 0.0 0.0 0.0
530 0.0 0.0 0.0
531 0.0 0.0 0.0
533 0.0 0.0 0.0
536 0.0 0.0 0.0
457 0.0 0.0 0.0
534 0.0 0.0 0.0
522 0.0 0.0 0.0
529 0.0 0.0 0.0
535 0.0 0.0 0.0
454 0.0 0.0 0.0
513 0.0 0.0 0.0
462 0.0 0.0 0.0
465 0.0 0.0 0.0
504 0.0 0.0 0.0
528 0.0 0.0 0.0
532 0.0 0.0 0.0
537 0.0 0.0 0.0
538 0.0 0.0 0.0
539 0.0 0.0 0.0
540 0.0 0.0 0.0
548 0.0 0.0 0.0
555 0.0 0.0 0.0
578 0.0 0.0 0.0
593 0.0 0.0 0.0
584 0.0 0.0 0.0
559 0.0 0.0 0.0
577 0.0 0.0 0.0
543 0.0 0.0 0.0
556 0.0 0.0 0.0
596 0.0 0.0 0.0
554 0.0 0.0 0.0
557 0.0 0.0 0.0
591 0.0 0.0 0.0
545 0.0 0.0 0.0
544 0.0 0.0 0.0
589 0.0 0.0 0.0
582 0.0 0.0 0.0
552 0.0 0.0 0.0
563 0.0 0.0 0.0
586 0.0 0.0 0.0
597 0.0 0.0 0.0
561 0.0 0.0 0.0
599 0.0 0.0 0.0
547 0.0 0.0 0.0
551 0.0 0.0 0.0
546 0.0 0.0 0.0
587 0.0 0.0 0.0
581 0.0 0.0 0.0
560 0.0 0.0 0.0
558 0.0 0.0 0.0
590 0.0 0.0 0.0
567 0.0 0.0 0.0
572 0.0 0.0 0.0
602 0.0 0.0 0.0
605 0.0 0.0 0.0
568 0.0 0.0 0.0
569 0.0 0.0 0.0
583 0.0 0.0 0.0
604 0.0 0.0 0.0
608 0.0 0.0 0.0
607 0.0 0.0 0.0
594 0.0 0.0 0.0
598 0.0 0.0 0.0
601 0.0 0.0 0.0
600 0.0 0.0 0.0
606 0.0 0.0 0.0
571 0.0 0.0 0.0
564 0.0 0.0 0.0
585 0.0 0.0 0.0
575 0.0 0.0 0.0
576 0.0 0.0 0.0
609 0.0 0.0 0.0
610 0.0 0.0 0.0
574 0.0 0.0 0.0
549 0.0 0.0 0.0
611 0.0 0.0 0.0
542 0.0 0.0 0.0
614 0.0 0.0 0.0
620 0.0 0.0 0.0
627 0.0 0.0 0.0
629 0.0 0.0 0.0
617 0.0 0.0 0.0
632 0.0 0.0 0.0
628 0.0 0.0 0.0
626 0.0 0.0 0.0
613 0.0 0.0 0.0
595 0.0 0.0 0.0
553 0.0 0.0 0.0
618 0.0 0.0 0.0
541 0.0 0.0 0.0
550 0.0 0.0 0.0
588 0.0 0.0 0.0
616 0.0 0.0 0.0
580 0.0 0.0 0.0
625 0.0 0.0 0.0
631 0.0 0.0 0.0
622 0.0 0.0 0.0
624 0.0 0.0 0.0
633 0.0 0.0 0.0
635 0.0 0.0 0.0
619 0.0 0.0 0.0
623 0.0 0.0 0.0
634 0.0 0.0 0.0
579 0.0 0.0 0.0
566 0.0 0.0 0.0
592 0.0 0.0 0.0
603 0.0 0.0 0.0
615 0.0 0.0 0.0
638 0.0 0.0 0.0
639 0.0 0.0 0.0
641 0.0 0.0 0.0
644 0.0 0.0 0.0
565 0.0 0.0 0.0
642 0.0 0.0 0.0
630 0.0 0.0 0.0
637 0.0 0.0 0.0
643 0.0 0.0 0.0
562 0.0 0.0 0.0
621 0.0 0.0 0.0
570 0.0 0.0 0.0
573 0.0 0.0 0.0
612 0.0 0.0 0.0
636 0.0 0.0 0.0
640 0.0 0.0 0.0
645 0.0 0.0 0.0
646 0.0 0.0 0.0
647 0.0 0.0 0.0
648 0.0 0.0 0.0
656 0.0 0.0 0.0
663 0.0 0.0 0.0
686 0.0 0.0 0.0
701 0.0 0.0 0.0
692 0.0 0.0 0.0
667 0.0 0.0 0.0
685 0.0 0.0 0.0
651 0.0 0.0 0.0
664 0.0 0.0 0.0
704 0.0 0.0 0.0
662 0.0 0.0 0.0
665 0.0 0.0 0.0
699 0.0 0.0 0.0
653 0.0 0.0 0.0
652 0.0 0.0 0.0
697 0.0 0.0 0.0
690 0.0 0.0 0.0
660 0.0 0.0 0.0
671 0.0 0.0 0.0
694 0.0 0.0 0.0
705 0.0 0.0 0.0
669 0.0 0.0 0.0
707 0.0 0.0 0.0
655 0.0 0.0 0.0
659 0.0 0.0 0.0
654 0.0 0.0 0.0
695 0.0 0.0 0.0
689 0.0 0.0 0.0
668 0.0 0.0 0.0
666 0.0 0.0 0.0
698 0.0 0.0 0.0
675 0.0 0.0 0.0
680 0.0 0.0 0.0
710 0.0 0.0 0.0
713 0.0 0.0 0.0
676 0.0 0.0 0.0
677 0.0 0.0 0.0
691 0.0 0.0 0.0
712 0.0 0.0 0.0
716 0.0 0.0 0.0
715 0.0 0.0 0.0
702 0.0 0.0 0.0
706 0.0 0.0 0.0
709 0.0 0.0 0.0
708 0.0 0.0 0.0
714 0.0 0.0 0.0
679 0.0 0.0 0.0
672 0.0 0.0 0.0
693 0.0 0.0 0.0
683 0.0 0.0 0.0
684 0.0 0.0 0.0
717 0.0 0.0 0.0
718 0.0 0.0 0.0
682 0.0 0.0 0.0
657 0.0 0.0 0.0
719 0.0 0.0 0.0
650 0.0 0.0 0.0
722 0.0 0.0 0.0
728 0.0 0.0 0.0
735 0.0 0.0 0.0
737 0.0 0.0 0.0
725 0.0 0.0 0.0
740 0.0 0.0 0.0
736 0.0 0.0 0.0
734 0.0 0.0 0.0
721 0.0 0.0 0.0
703 0.0 0.0 0.0
661 0.0 0.0 0.0
726 0.0 0.0 0.0
649 0.0 0.0 0.0
658 0.0 0.0 0.0
696 0.0 0.0 0.0
724 0.0 0.0 0.0
688 0.0 0.0 0.0
733 0.0 0.0 0.0
739 0.0 0.0 0.0
730 0.0 0.0 0.0
732 0.0 0.0 0.0
741 0.0 0.0 0.0
743 0.0 0.0 0.0
727 0.0 0.0 0.0
731 0.0 0.0 0.0
742 0.0 0.0 0.0
687 0.0 0.0 0.0
674 0.0 0.0 0.0
700 0.0 0.0 0.0
711 0.0 0.0 0.0
723 0.0 0.0 0.0
746 0.0 0.0 0.0
747 0.0 0.0 0.0
749 0.0 0.0 0.0
752 0.0 0.0 0.0
673 0.0 0.0 0.0
750 0.0 0.0 0.0
738 0.0 0.0 0.0
745 0.0 0.0 0.0
751 0.0 0.0 0.0
670 0.0 0.0 0.0
729 0.0 0.0 0.0
678 0.0 0.0 0.0
681 0.0 0.0 0.0
720 0.0 0.0 0.0
744 0.0 0.0 0.0
748 0.0 0.0 0.0
753 0.0 0.0 0.0
754 0.0 0.0 0.0
755 0.0 0.0 0.0
756 0.0 0.0 0.0
764 0.0 0.0 0.0
771 0.0 0.0 0.0
794 0.0 0.0 0.0
809 0.0 0.0 0.0
800 0.0 0.0 0.0
775 0.0 0.0 0.0
793 0.0 0.0 0.0
759 0.0 0.0 0.0
772 0.0 0.0 0.0
812 0.0 0.0 0.0
770 0.0 0.0 0.0
773 0.0 0.0 0.0
807 0.0 0.0 0.0
761 0.0 0.0 0.0
760 0.0 0.0 0.0
805 0.0 0.0 0.0
798 0.0 0.0 0.0
768 0.0 0.0 0.0
779 0.0 0.0 0.0
802 0.0 0.0 0.0
813 0.0 0.0 0.0
777 0.0 0.0 0.0
815 0.0 0.0 0.0
763 0.0 0.0 0.0
767 0.0 0.0 0.0
762 0.0 0.0 0.0
803 0.0 0.0 0.0
797 0.0 0.0 0.0
776 0.0 0.0 0.0
774 0.0 0.0 0.0
806 0.0 0.0 0.0
783 0.0 0.0 0.0
788 0.0 0.0 0.0
818 0.0 0.0 0.0
821 0.0 0.0 0.0
784 0.0 0.0 0.0
785 0.0 0.0 0.0
799 0.0 0.0 0.0
820 0.0 0.0 0.0
824 0.0 0.0 0.0
823 0.0 0.0 0.0
810 0.0 0.0 0.0
814 0.0 0.0 0.0
817 0.0 0.0 0.0
816 0.0 0.0 0.0
822 0.0 0.0 0.0
787 0.0 0.0 0.0
780 0.0 0.0 0.0
801 0.0 0.0 0.0
791 0.0 0.0 0.0
792 0.0 0.0 0.0
825 0.0 0.0 0.0
826 0.0 0.0 0.0
790 0.0 0.0 0.0
765 0.0 0.0 0.0
827 0.0 0.0 0.0
758 0.0 0.0 0.0
830 0.0 0.0 0.0
836 0.0 0.0 0.0
843 0.0 0.0 0.0
845 0.0 0.0 0.0
833 0.0 0.0 0.0
848 0.0 0.0 0.0
844 0.0 0.0 0.0
842 0.0 0.0 0.0
829 0.0 0.0 0.0
811 0.0 0.0 0.0
769 0.0 0.0 0.0
834 0.0 0.0 0.0
757 0.0 0.0 0.0
766 0.0 0.0 0.0
804 0.0 0.0 0.0
832 0.0 0.0 0.0
796 0.0 0.0 0.0
841 0.0 0.0 0.0
847 0.0 0.0 0.0
838 0.0 0.0 0.0
840 0.0 0.0 0.0
849 0.0 0.0 0.0
851 0.0 0.0 0.0
835 0.0 0.0 0.0
839 0.0 0.0 0.0
850 0.0 0.0 0.0
795 0.0 0.0 0.0
782 0.0 0.0 0.0
808 0.0 0.0 0.0
819 0.0 0.0 0.0
831 0.0 0.0 0.0
854 0.0 0.0 0.0
855 0.0 0.0 0.0
857 0.0 0.0 0.0
860 0.0 0.0 0.0
781 0.0 0.0 0.0
858 0.0 0.0 0.0
846 0.0 0.0 0.0
853 0.0 0.0 0.0
859 0.0 0.0 0.0
778 0.0 0.0 0.0
837 0.0 0.0 0.0
786 0.0 0.0 0.0
789 0.0 0.0 0.0
828 0.0 0.0 0.0
852 0.0 0.0 0.0
856 0.0 0.0 0.0
861 0.0 0.0 0.0
862 0.0 0.0 0.0
863 0.0 0.0 0.0
864 0.0 0.0 0.0
872 0.0 0.0 0.0
879 0.0 0.0 0.0
902 0.0 0.0 0.0
917 0.0 0.0 0.0
908 0.0 0.0 0.0
883 0.0 0.0 0.0
901 0.0 0.0 0.0
867 0.0 0.0 0.0
880 0.0 0.0 0.0
920 0.0 0.0 0.0
878 0.0 0.0 0.0
881 0.0 0.0 0.0
915 0.0 0.0 0.0
869 0.0 0.0 0.0
868 0.0 0.0 0.0
913 0.0 0.0 0.0
906 0.0 0.0 0.0
876 0.0 0.0 0.0
887 0.0 0.0 0.0
910 0.0 0.0 0.0
921 0.0 0.0 0.0
885 0.0 0.0 0.0
923 0.0 0.0 0.0
871 0.0 0.0 0.0
875 0.0 0.0 0.0
870 0.0 0.0 0.0
911 0.0 0.0 0.0
905 0.0 0.0 0.0
884 0.0 0.0 0.0
882 0.0 0.0 0.0
914 0.0 0.0 0.0
891 0.0 0.0 0.0
896 0.0 0.0 0.0
926 0.0 0.0 0.0
929 0.0 0.0 0.0
892 0.0 0.0 0.0
893 0.0 0.0 0.0
907 0.0 0.0 0.0
928 0.0 0.0 0.0
932 0.0 0.0 0.0
931 0.0 0.0 0.0
918 0.0 0.0 0.0
922 0.0 0.0 0.0
925 0.0 0.0 0.0
924 0.0 0.0 0.0
930 0.0 0.0 0.0
895 0.0 0.0 0.0
888 0.0 0.0 0.0
909 0.0 0.0 0.0
899 0.0 0.0 0.0
900 0.0 0.0 0.0
933 0.0 0.0 0.0
934 0.0 0.0 0.0
898 0.0 0.0 0.0
873 0.0 0.0 0.0
935 0.0 0.0 0.0
866 0.0 0.0 0.0
938 0.0 0.0 0.0
944 0.0 0.0 0.0
951 0.0 0.0 0.0
953 0.0 0.0 0.0
941 0.0 0.0 0.0
956 0.0 0.0 0.0
952 0.0 0.0 0.0
950 0.0 0.0 0.0
937 0.0 0.0 0.0
919 0.0 0.0 0.0
877 0.0 0.0 0.0
942 0.0 0.0 0.0
865 0.0 0.0 0.0
874 0.0 0.0 0.0
912 0.0 0.0 0.0
940 0.0 0.0 0.0
904 0.0 0.0 0.0
949 0.0 0.0 0.0
955 0.0 0.0 0.0
946 0.0 0.0 0.0
948 0.0 0.0 0.0
957 0.0 0.0 0.0
959 0.0 0.0 0.0
943 0.0 0.0 0.0
947 0.0 0.0 0.0
958 0.0 0.0 0.0
903 0.0 0.0 0.0
890 0.0 0.0 0.0
916 0.0 0.0 0.0
927 0.0 0.0 0.0
939 0.0 0.0 0.0
962 0.0 0.0 0.0
963 0.0 0.0 0.0
965 0.0 0.0 0.0
968 0.0 0.0 0.0
889 0.0 0.0 0.0
966 0.0 0.0 0.0
954 0.0 0.0 0.0
961 0.0 0.0 0.0
967 0.0 0.0 0.0
886 0.0 0.0 0.0
945 0.0 0.0 0.0
894 0.0 0.0 0.0
897 0.0 0.0 0.0
936 0.0 0.0 0.0
960 0.0 0.0 0.0
964 0.0 0.0 0.0
969 0.0 0.0 0.0
970 0.0 0.0 0.0
971 0.0 0.0 0.0
972 0.0 0.0 0.0
980 0.0 0.0 0.0
987 0.0 0.0 0.0
1010 0.0 0.0 0.0
1025 0.0 0.0 0.0
1016 0.0 0.0 0.0
991 0.0 0.0 0.0
1009 0.0 0.0 0.0
975 0.0 0.0 0.0
988 0.0 0.0 0.0
1028 0.0 0.0 0.0
986 0.0 0.0 0.0
989 0.0 0.0 0.0
1023 0.0 0.0 0.0
977 0.0 0.0 0.0
976 0.0 0.0 0.0
1021 0.0 0.0 0.0
1014 0.0 0.0 0.0
984 0.0 0.0 0.0
995 0.0 0.0 0.0
1018 0.0 0.0 0.0
1029 0.0 0.0 0.0
993 0.0 0.0 0.0
1031 0.0 0.0 0.0
979 0.0 0.0 0.0
983 0.0 0.0 0.0
978 0.0 0.0 0.0
1019 0.0 0.0 0.0
1013 0.0 0.0 0.0
992 0.0 0.0 0.0
990 0.0 0.0 0.0
1022 0.0 0.0 0.0
999 0.0 0.0 0.0
1004 0.0 0.0 0.0
1034 0.0 0.0 0.0
1037 0.0 0.0 0.0
1000 0.0 0.0 0.0
1001 0.0 0.0 0.0
1015 0.0 0.0 0.0
1036 0.0 0.0 0.0
1040 0.0 0.0 0.0
1039 0.0 0.0 0.0
1026 0.0 0.0 0.0
1030 0.0 0.0 0.0
1033 0.0 0.0 0.0
1032 0.0 0.0 0.0
1038 0.0 0.0 0.0
1003 0.0 0.0 0.0
996 0.0 0.0 0.0
1017 0.0 0.0 0.0
1007 0.0 0.0 0.0
1008 0.0 0.0 0.0
1041 0.0 0.0 0.0
1042 0.0 0.0 0.0
1006 0.0 0.0 0.0
981 0.0 0.0 0.0
1043 0.0 0.0 0.0
974 0.0 0.0 0.0
1046 0.0 0.0 0.0
1052 0.0 0.0 0.0
1059 0.0 0.0 0.0
1061 0.0 0.0 0.0
1049 0.0 0.0 0.0
1064 0.0 0.0 0.0
1060 0.0 0.0 0.0
1058 0.0 0.0 0.0
1045 0.0 0.0 0.0
1027 0.0 0.0 0.0
985 0.0 0.0 0.0
1050 0.0 0.0 0.0
973 0.0 0.0 0.0
982 0.0 0.0 0.0
1020 0.0 0.0 0.0
1048 0.0 0.0 0.0
1012 0.0 0.0 0.0
1057 0.0 0.0 0.0
1063 0.0 0.0 0.0
1054 0.0 0.0 0.0
1056 0.0 0.0 0.0
1065 0.0 0.0 0.0
1067 0.0 0.0 0.0
1051 0.0 0.0 0.0
1055 0.0 0.0 0.0
1066 0.0 0.0 0.0
1011 0.0 0.0 0.0
998 0.0 0.0 0.0
1024 0.0 0.0 0.0
1035 0.0 0.0 0.0
1047 0.0 0.0 0.0
1070 0.0 0.0 0.0
1071 0.0 0.0 0.0
1073 0.0 0.0 0.0
1076 0.0 0.0 0.0
997 0.0 0.0 0.0
1074 0.0 0.0 0.0
1062 0.0 0.0 0.0
1069 0.0 0.0 0.0
1075 0.0 0.0 0.0
994 0.0 0.0 0.0
1053 0.0 0.0 0.0
1002 0.0 0.0 0.0
1005 0.0 0.0 0.0
1044 0.0 0.0 0.0
1068 0.0 0.0 0.0
1072 0.0 0.0 0.0
1077 0.0 0.0 0.0
1078 0.0 0.0 0.0
1079 0.0 0.0 0.0
1080 0.0 0.0 0.0
1088 0.0 0.0 0.0
1095 0.0 0.0 0.0
1118 0.0 0.0 0.0
1133 0.0 0.0 0.0
1124 0.0 0.0 0.0
1099 0.0 0.0 0.0
1117 0.0 0.0 0.0
1083 0.0 0.0 0.0
1096 0.0 0.0 0.0
1136 0.0 0.0 0.0
1094 0.0 0.0 0.0
1097 0.0 0.0 0.0
1131 0.0 0.0 0.0
1085 0.0 0.0 0.0
1084 0.0 0.0 0.0
1129 0.0 0.0 0.0
1122 0.0 0.0 0.0
1092 0.0 0.0 0.0
1103 0.0 0.0 0.0
1126 0.0 0.0 0.0
1137 0.0 0.0 0.0
1101 0.0 0.0 0.0
1139 0.0 0.0 0.0
1087 0.0 0.0 0.0
1091 0.0 0.0 0.0
1086 0.0 0.0 0.0
1127 0.0 0.0 0.0
1121 0.0 0.0 0.0
1100 0.0 0.0 0.0
1098 0.0 0.0 0.0
1130 0.0 0.0 0.0
1107 0.0 0.0 0.0
1112 0.0 0.0 0.0
1142 0.0 0.0 0.0
1145 0.0 0.0 0.0
1108 0.0 0.0 0.0
1109 0.0 0.0 0.0
1123 0.0 0.0 0.0
1144 0.0 0.0 0.0
1148 0.0 0.0 0.0
1147 0.0 0.0 0.0
1134 0.0 0.0 0.0
1138 0.0 0.0 0.0
1141 0.0 0.0 0.0
1140 0.0 0.0 0.0
1146 0.0 0.0 0.0
1111 0.0 0.0 0.0
1104 0.0 0.0 0.0
1125 0.0 0.0 0.0
1115 0.0 0.0 0.0
1116 0.0 0.0 0.0
1149 0.0 0.0 0.0
1150 0.0 0.0 0.0
1114 0.0 0.0 0.0
1089 0.0 0.0 0.0
1151 0.0 0.0 0.0
1082 0.0 0.0 0.0
1154 0.0 0.0 0.0
1160 0.0 0.0 0.0
1167 0.0 0.0 0.0
1169 0.0 0.0 0.0
1157 0.0 0.0 0.0
1172 0.0 0.0 0.0
1168 0.0 0.0 0.0
1166 0.0 0.0 0.0
1153 0.0 0.0 0.0
1135 0.0 0.0 0.0
1093 0.0 0.0 0.0
1158 0.0 0.0 0.0
1081 0.0 0.0 0.0
1090 0.0 0.0 0.0
1128 0.0 0.0 0.0
1156 0.0 0.0 0.0
1120 0.0 0.0 0.0
1165 0.0 0.0 0.0
1171 0.0 0.0 0.0
1162 0.0 0.0 0.0
1164 0.0 0.0 0.0
1173 0.0 0.0 0.0
1175 0.0 0.0 0.0
1159 0.0 0.0 0.0
1163 0.0 0.0 0.0
1174 0.0 0.0 0.0
1119 0.0 0.0 0.0
1106 0.0 0.0 0.0
1132 0.0 0.0 0.0
1143 0.0 0.0 0.0
1155 0.0 0.0 0.0
1178 0.0 0.0 0.0
1179 0.0 0.0 0.0
1181 0.0 0.0 0.0
1184 0.0 0.0 0.0
1105 0.0 0.0 0.0
1182 0.0 0.0 0.0
1170 0.0 0.0 0.0
1177 0.0 0.0 0.0
1183 0.0 0.0 0.0
1102 0.0 0.0 0.0
1161 0.0 0.0 0.0
1110 0.0 0.0 0.0
1113 0.0 0.0 0.0
1152 0.0 0.0 0.0
1176 0.0 0.0 0.0
1180 0.0 0.0 0.0
1185 0.0 0.0 0.0
1186 0.0 0.0 0.0
1187 0.0 0.0 0.0
1188 0.0 0.0 0.0
1196 0.0 0.0 0.0
1203 0.0 0.0 0.0
1226 0.0 0.0 0.0
1241 0.0 0.0 0.0
1232 0.0 0.0 0.0
1207 0.0 0.0 0.0
1225 0.0 0.0 0.0
1191 0.0 0.0 0.0
1204 0.0 0.0 0.0
1244 0.0 0.0 0.0
1202 0.0 0.0 0.0
1205 0.0 0.0 0.0
1239 0.0 0.0 0.0
1193 0.0 0.0 0.0
1192 0.0 0.0 0.0
1237 0.0 0.0 0.0
1230 0.0 0.0 0.0
1200 0.0 0.0 0.0
1211 0.0 0.0 0.0
1234 0.0 0.0 0.0
1245 0.0 0.0 0.0
1209 0.0 0.0 0.0
1247 0.0 0.0 0.0
1195 0.0 0.0 0.0
1199 0.0 0.0 0.0
1194 0.0 0.0 0.0
1235 0.0 0.0 0.0
1229 0.0 0.0 0.0
1208 0.0 0.0 0.0
1206 0.0 0.0 0.0
1238 0.0 0.0 0.0
1215 0.0 0.0 0.0
1220 0.0 0.0 0.0
1250 0.0 0.0 0.0
1253 0.0 0.0 0.0
1216 0.0 0.0 0.0
1217 0.0 0.0 0.0
1231 0.0 0.0 0.0
1252 0.0 0.0 0.0
1256 0.0 0.0 0.0
1255 0.0 0.0 0.0
1242 0.0 0.0 0.0
1246 0.0 0.0 0.0
1249 0.0 0.0 0.0
1248 0.0 0.0 0.0
1254 0.0 0.0 0.0
1219 0.0 0.0 0.0
1212 0.0 0.0 0.0
1233 0.0 0.0 0.0
1223 0.0 0.0 0.0
1224 0.0 0.0 0.0
1257 0.0 0.0 0.0
1258 0.0 0.0 0.0
1222 0.0 0.0 0.0
1197 0.0 0.0 0.0
1259 0.0 0.0 0.0
1190 0.0 0.0 0.0
1262 0.0 0.0 0.0
1268 0.0 0.0 0.0
1275 0.0 0.0 0.0
1277 0.0 0.0 0.0
1265 0.0 0.0 0.0
1280 0.0 0.0 0.0
1276 0.0 0.0 0.0
1274 0.0 0.0 0.0
1261 0.0 0.0 0.0
1243 0.0 0.0 0.0
1201 0.0 0.0 0.0
1266 0.0 0.0 0.0
1189 0.0 0.0 0.0
1198 0.0 0.0 0.0
1236 0.0 0.0 0.0
1264 0.0 0.0 0.0
1228 0.0 0.0 0.0
1273 0.0 0.0 0.0
1279 0.0 0.0 0.0
1270 0.0 0.0 0.0
1272 0.0 0.0 0.0
1281 0.0 0.0 0.0
1283 0.0 0.0 0.0
1267 0.0 0.0 0.0
1271 0.0 0.0 0.0
1282 0.0 0.0 0.0
1227 0.0 0.0 0.0
1214 0.0 0.0 0.0
1240 0.0 0.0 0.0
1251 0.0 0.0 0.0
1263 0.0 0.0 0.0
1286 0.0 0.0 0.0
1287 0.0 0.0 0.0
1289 0.0 0.0 0.0
1292 0.0 0.0 0.0
1213 0.0 0.0 0.0
1290 0.0 0.0 0.0
1278 0.0 0.0 0.0
1285 0.0 0.0 0.0
1291 0.0 0.0 0.0
1210 0.0 0.0 0.0
1269 0.0 0.0 0.0
1218 0.0 0.0 0.0
1221 0.0 0.0 0.0
1260 0.0 0.0 0.0
1284 0.0 0.0 0.0
1288 0.0 0.0 0.0
1293 0.0 0.0 0.0
1294 0.0 0.0 0.0
1295 0.0 0.0 0.0
1296 0.0 0.0 0.0
1304 0.0 0.0 0.0
1311 0.0 0.0 0.0
1334 0.0 0.0 0.0
1349 0.0 0.0 0.0
1340 0.0 0.0 0.0
1315 0.0 0.0 0.0
1333 0.0 0.0 0.0
1299 0.0 0.0 0.0
1312 0.0 0.0 0.0
1352 0.0 0.0 0.0
1310 0.0 0.0 0.0
1313 0.0 0.0 0.0
1347 0.0 0.0 0.0
1301 0.0 0.0 0.0
1300 0.0 0.0 0.0
1345 0.0 0.0 0.0
1338 0.0 0.0 0.0
1308 0.0 0.0 0.0
1319 0.0 0.0 0.0
1342 0.0 0.0 0.0
1353 0.0 0.0 0.0
1317 0.0 0.0 0.0
1355 0.0 0.0 0.0
1303 0.0 0.0 0.0
1307 0.0 0.0 0.0
1302 0.0 0.0 0.0
1343 0.0 0.0 0.0
1337 0.0 0.0 0.0
1316 0.0 0.0 0.0
1314 0.0 0.0 0.0
1346 0.0 0.0 0.0
1323 0.0 0.0 0.0
1328 0.0 0.0 0.0
1358 0.0 0.0 0.0
1361 0.0 0.0 0.0
1324 0.0 0.0 0.0
1325 0.0 0.0 0.0
1339 0.0 0.0 0.0
1360 0.0 0.0 0.0
1364 0.0 0.0 0.0
1363 0.0 0.0 0.0
1350 0.0 0.0 0.0
1354 0.0 0.0 0.0
1357 0.0 0.0 0.0
1356 0.0 0.0 0.0
1362 0.0 0.0 0.0
1327 0.0 0.0 0.0
1320 0.0 0.0 0.0
1341 0.0 0.0 0.0
1331 0.0 0.0 0.0
1332 0.0 0.0 0.0
1365 0.0 0.0 0.0
1366 0.0 0.0 0.0
1330 0.0 0.0 0.0
1305 0.0 0.0 0.0
1367 0.0 0.0 0.0
1298 0.0 0.0 0.0
1370 0.0 0.0 0.0
1376 0.0 0.0 0.0
1383 0.0 0.0 0.0
1385 0.0 0.0 0.0
1373 0.0 0.0 0.0
1388 0.0 0.0 0.0
1384 0.0 0.0 0.0
1382 0.0 0.0 0.0
1369 0.0 0.0 0.0
1351 0.0 0.0 0.0
1309 0.0 0.0 0.0
1374 0.0 0.0 0.0
1297 0.0 0.0 0.0
1306 0.0 0.0 0.0
1344 0.0 0.0 0.0
1372 0.0 0.0 0.0
1336 0.0 0.0 0.0
1381 0.0 0.0 0.0
1387 0.0 0.0 0.0
1378 0.0 0.0 0.0
1380 0.0 0.0 0.0
1389 0.0 0.0 0.0
1391 0.0 0.0 0.0
1375 0.0 0.0 0.0
1379 0.0 0.0 0.0
1390 0.0 0.0 0.0
1335 0.0 0.0 0.0
1322 0.0 0.0 0.0
1348 0.0 0.0 0.0
1359 0.0 0.0 0.0
1371 0.0 0.0 0.0
1394 0.0 0.0 0.0
1395 0.0 0.0 0.0
1397 0.0 0.0 0.0
1400 0.0 0.0 0.0
1321 0.0 0.0 0.0
1398 0.0 0.0 0.0
1386 0.0 0.0 0.0
1393 0.0 0.0 0.0
1399 0.0 0.0 0.0
1318 0.0 0.0 0.0
1377 0.0 0.0 0.0
1326 0.0 0.0 0.0
1329 0.0 0.0 0.0
1368 0.0 0.0 0.0
1392 0.0 0.0 0.0
1396 0.0 0.0 0.0
1401 0.0 0.0 0.0
1402 0.0 0.0 0.0
1403 0.0 0.0 0.0
1404 0.0 0.0 0.0
1412 0.0 0.0 0.0
1419 0.0 0.0 0.0
1442 0.0 0.0 0.0
1457 0.0 0.0 0.0
1448 0.0 0.0 0.0
1423 0.0 0.0 0.0
1441 0.0 0.0 0.0
1407 0.0 0.0 0.0
1420 0.0 0.0 0.0
1460 0.0 0.0 0.0
1418 0.0 0.0 0.0
1421 0.0 0.0 0.0
1455 0.0 0.0 0.0
1409 0.0 0.0 0.0
1408 0.0 0.0 0.0
1453 0.0 0.0 0.0
1446 0.0 0.0 0.0
1416 0.0 0.0 0.0
1427 0.0 0.0 0.0
1450 0.0 0.0 0.0
1461 0.0 0.0 0.0
1425 0.0 0.0 0.0
1463 0.0 0.0 0.0
1411 0.0 0.0 0.0
1415 0.0 0.0 0.0
1410 0.0 0.0 0.0
1451 0.0 0.0 0.0
1445 0.0 0.0 0.0
1424 0.0 0.0 0.0
1422 0.0 0.0 0.0
1454 0.0 0.0 0.0
1431 0.0 0.0 0.0
1436 0.0 0.0 0.0
1466 0.0 0.0 0.0
1469 0.0 0.0 0.0
1432 0.0 0.0 0.0
1433 0.0 0.0 0.0
1447 0.0 0.0 0.0
1468 0.0 0.0 0.0
1472 0.0 0.0 0.0
1471 0.0 0.0 0.0
1458 0.0 0.0 0.0
1462 0.0 0.0 0.0
1465 0.0 0.0 0.0
1464 0.0 0.0 0.0
1470 0.0 0.0 0.0
1435 0.0 0.0 0.0
1428 0.0 0.0 0.0
1449 0.0 0.0 0.0
1439 0.0 0.0 0.0
1440 0.0 0.0 0.0
1473 0.0 0.0 0.0
1474 0.0 0.0 0.0
1438 0.0 0.0 0.0
1413 0.0 0.0 0.0
1475 0.0 0.0 0.0
1406 0.0 0.0 0.0
1478 0.0 0.0 0.0
1484 0.0 0.0 0.0
1491 0.0 0.0 0.0
1493 0.0 0.0 0.0
1481 0.0 0.0 0.0
1496 0.0 0.0 0.0
1492 0.0 0.0 0.0
1490 0.0 0.0 0.0
1477 0.0 0.0 0.0
1459 0.0 0.0 0.0
1417 0.0 0.0 0.0
1482 0.0 0.0 0.0
1405 0.0 0.0 0.0
1414 0.0 0.0 0.0
1452 0.0 0.0 0.0
1480 0.0 0.0 0.0
1444 0.0 0.0 0.0
1489 0.0 0.0 0.0
1495 0.0 0.0 0.0
1486 0.0 0.0 0.0
1488 0.0 0.0 0.0
1497 0.0 0.0 0.0
1499 0.0 0.0 0.0
1483 0.0 0.0 0.0
1487 0.0 0.0 0.0
1498 0.0 0.0 0.0
1443 0.0 0.0 0.0
1430 0.0 0.0 0.0
1456 0.0 0.0 0.0
1467 0.0 0.0 0.0
1479 0.0 0.0 0.0
1502 0.0 0.0 0.0
1503 0.0 0.0 0.0
1505 0.0 0.0 0.0
1508 0.0 0.0 0.0
1429 0.0 0.0 0.0
1506 0.0 0.0 0.0
1494 0.0 0.0 0.0
1501 0.0 0.0 0.0
1507 0.0 0.0 0.0
1426 0.0 0.0 0.0
1485 0.0 0.0 0.0
1434 0.0 0.0 0.0
1437 0.0 0.0 0.0
1476 0.0 0.0 0.0
1500 0.0 0.0 0.0
1504 0.0 0.0 0.0
1509 0.0 0.0 0.0
1510 0.0 0.0 0.0
1511 0.0 0.0 0.0
1512 0.0 0.0 0.0
1520 0.0 0.0 0.0
1527 0.0 0.0 0.0
1550 0.0 0.0 0.0
1565 0.0 0.0 0.0
1556 0.0 0.0 0.0
1531 0.0 0.0 0.0
1549 0.0 0.0 0.0
1515 0.0 0.0 0.0
1528 0.0 0.0 0.0
1568 0.0 0.0 0.0
1526 0.0 0.0 0.0
1529 0.0 0.0 0.0
1563 0.0 0.0 0.0
1517 0.0 0.0 0.0
1516 0.0 0.0 0.0
1561 0.0 0.0 0.0
1554 0.0 0.0 0.0
1524 0.0 0.0 0.0
1535 0.0 0.0 0.0
1558 0.0 0.0 0.0
1569 0.0 0.0 0.0
1533 0.0 0.0 0.0
1571 0.0 0.0 0.0
1519 0.0 0.0 0.0
1523 0.0 0.0 0.0
1518 0.0 0.0 0.0
1559 0.0 0.0 0.0
1553 0.0 0.0 0.0
1532 0.0 0.0 0.0
1530 0.0 0.0 0.0
1562 0.0 0.0 0.0
1539 0.0 0.0 0.0
1544 0.0 0.0 0.0
1574 0.0 0.0 0.0
1577 0.0 0.0 0.0
1540 0.0 0.0 0.0
1541 0.0 0.0 0.0
1555 0.0 0.0 0.0
1576 0.0 0.0 0.0
1580 0.0 0.0 0.0
1579 0.0 0.0 0.0
1566 0.0 0.0 0.0
1570 0.0 0.0 0.0
1573 0.0 0.0 0.0
1572 0.0 0.0 0.0
1578 0.0 0.0 0.0
1543 0.0 0.0 0.0
1536 0.0 0.0 0.0
1557 0.0 0.0 0.0
1547 0.0 0.0 0.0
1548 0.0 0.0 0.0
1581 0.0 0.0 0.0
1582 0.0 0.0 0.0
1546 0.0 0.0 0.0
1521 0.0 0.0 0.0
1583 0.0 0.0 0.0
1514 0.0 0.0 0.0
1586 0.0 0.0 0.0
1592 0.0 0.0 0.0
1599 0.0 0.0 0.0
1601 0.0 0.0 0.0
1589 0.0 0.0 0.0
1604 0.0 0.0 0.0
1600 0.0 0.0 0.0
1598 0.0 0.0 0.0
1585 0.0 0.0 0.0
1567 0.0 0.0 0.0
1525 0.0 0.0 0.0
1590 0.0 0.0 0.0
1513 0.0 0.0 0.0
1522 0.0 0.0 0.0
1560 0.0 0.0 0.0
1588 0.0 0.0 0.0
1552 0.0 0.0 0.0
1597 0.0 0.0 0.0
1603 0.0 0.0 0.0
1594 0.0 0.0 0.0
1596 0.0 0.0 0.0
1605 0.0 0.0 0.0
1607 0.0 0.0 0.0
1591 0.0 0.0 0.0
1595 0.0 0.0 0.0
1606 0.0 0.0 0.0
1551 0.0 0.0 0.0
1538 0.0 0.0 0.0
1564 0.0 0.0 0.0
1575 0.0 0.0 0.0
1587 0.0 0.0 0.0
1610 0.0 0.0 0.0
1611 0.0 0.0 0.0
1613 0.0 0.0 0.0
1616 0.0 0.0 0.0
1537 0.0 0.0 0.0
1614 0.0 0.0 0.0
1602 0.0 0.0 0.0
1609 0.0 0.0 0.0
1615 0.0 0.0 0.0
1534 0.0 0.0 0.0
1593 0.0 0.0 0.0
1542 0.0 0.0 0.0
1545 0.0 0.0 0.0
1584 0.0 0.0 0.0
1608 0.0 0.0 0.0
1612 0.0 0.0 0.0
1617 0.0 0.0 0.0
1618 0.0 0.0 0.0
1619 0.0 0.0 0.0
1620 0.0 0.0 0.0
1628 0.0 0.0 0.0
1635 0.0 0.0 0.0
1658 0.0 0.0 0.0
1673 0.0 0.0 0.0
1664 0.0 0.0 0.0
1639 0.0 0.0 0.0
1657 0.0 0.0 0.0
1623 0.0 0.0 0.0
1636 0.0 0.0 0.0
1676 0.0 0.0 0.0
1634 0.0 0.0 0.0
1637 0.0 0.0 0.0
1671 0.0 0.0 0.0
1625 0.0 0.0 0.0
1624 0.0 0.0 0.0
1669 0.0 0.0 0.0
1662 0.0 0.0 0.0
1632 0.0 0.0 0.0
1643 0.0 0.0 0.0
1666 0.0 0.0 0.0
1677 0.0 0.0 0.0
1641 0.0 0.0 0.0
1679 0.0 0.0 0.0
1627 0.0 0.0 0.0
1631 0.0 0.0 0.0
1626 0.0 0.0 0.0
1667 0.0 0.0 0.0
1661 0.0 0.0 0.0
1640 0.0 0.0 0.0
1638 0.0 0.0 0.0
1670 0.0 0.0 0.0
1647 0.0 0.0 0.0
1652 0.0 0.0 0.0
1682 0.0 0.0 0.0
1685 0.0 0.0 0.0
1648 0.0 0.0 0.0
1649 0.0 0.0 0.0
1663 0.0 0.0 0.0
1684 0.0 0.0 0.0
1688 0.0 0.0 0.0
1687 0.0 0.0 0.0
1674 0.0 0.0 0.0
1678 0.0 0.0 0.0
1681 0.0 0.0 0.0
1680 0.0 0.0 0.0
1686 0.0 0.0 0.0
1651 0.0 0.0 0.0
1644 0.0 0.0 0.0
1665 0.0 0.0 0.0
1655 0.0 0.0 0.0
1656 0.0 0.0 0.0
1689 0.0 0.0 0.0
1690 0.0 0.0 0.0
1654 0.0 0.0 0.0
1629 0.0 0.0 0.0
1691 0.0 0.0 0.0
1622 0.0 0.0 0.0
1694 0.0 0.0 0.0
1700 0.0 0.0 0.0
1707 0.0 0.0 0.0
1709 0.0 0.0 0.0
1697 0.0 0.0 0.0
1712 0.0 0.0 0.0
1708 0.0 0.0 0.0
1706 0.0 0.0 0.0
1693 0.0 0.0 0.0
1675 0.0 0.0 0.0
1633 0.0 0.0 0.0
1698 0.0 0.0 0.0
1621 0.0 0.0 0.0
1630 0.0 0.0 0.0
1668 0.0 0.0 0.0
1696 0.0 0.0 0.0
1660 0.0 0.0 0.0
1705 0.0 0.0 0.0
1711 0.0 0.0 0.0
1702 0.0 0.0 0.0
1704 0.0 0.0 0.0
1713 0.0 0.0 0.0
1715 0.0 0.0 0.0
1699 0.0 0.0 0.0
1703 0.0 0.0 0.0
1714 0.0 0.0 0.0
1659 0.0 0.0 0.0
1646 0.0 0.0 0.0
1672 0.0 0.0 0.0
1683 0.0 0.0 0.0
1695 0.0 0.0 0.0
1718 0.0 0.0 0.0
1719 0.0 0.0 0.0
1721 0.0 0.0 0.0
1724 0.0 0.0 0.0
1645 0.0 0.0 0.0
1722 0.0 0.0 0.0
1710 0.0 0.0 0.0
1717 0.0 0.0 0.0
1723 0.0 0.0 0.0
1642 0.0 0.0 0.0
1701 0.0 0.0 0.0
1650 0.0 0.0 0.0
1653 0.0 0.0 0.0
1692 0.0 0.0 0.0
1716 0.0 0.0 0.0
1720 0.0 0.0 0.0
1725 0.0 0.0 0.0
1726 0.0 0.0 0.0
1727 0.0 0.0 0.0
1728 0.0 0.0 0.0
1736 0.0 0.0 0.0
1743 0.0 0.0 0.0
1766 0.0 0.0 0.0
1781 0.0 0.0 0.0
1772 0.0 0.0 0.0
1747 0.0 0.0 0.0
1765 0.0 0.0 0.0
1731 0.0 0.0 0.0
1744 0.0 0.0 0.0
1784 0.0 0.0 0.0
1742 0.0 0.0 0.0
1745 0.0 0.0 0.0
1779 0.0 0.0 0.0
1733 0.0 0.0 0.0
1732 0.0 0.0 0.0
1777 0.0 0.0 0.0
1770 0.0 0.0 0.0
1740 0.0 0.0 0.0
1751 0.0 0.0 0.0
1774 0.0 0.0 0.0
1785 0.0 0.0 0.0
1749 0.0 0.0 0.0
1787 0.0 0.0 0.0
1735 0.0 0.0 0.0
1739 0.0 0.0 0.0
1734 0.0 0.0 0.0
1775 0.0 0.0 0.0
1769 0.0 0.0 0.0
1748 0.0 0.0 0.0
1746 0.0 0.0 0.0
1778 0.0 0.0 0.0
1755 0.0 0.0 0.0
1760 0.0 0.0 0.0
1790 0.0 0.0 0.0
1793 0.0 0.0 0.0
1756 0.0 0.0 0.0
1757 0.0 0.0 0.0
1771 0.0 0.0 0.0
1792 0.0 0.0 0.0
1796 0.0 0.0 0.0
1795 0.0 0.0 0.0
1782 0.0 0.0 0.0
1786 0.0 0.0 0.0
1789 0.0 0.0 0.0
1788 0.0 0.0 0.0
1794 0.0 0.0 0.0
1759 0.0 0.0 0.0
1752 0.0 0.0 0.0
1773 0.0 0.0 0.0
1763 0.0 0.0 0.0
1764 0.0 0.0 0.0
1797 0.0 0.0 0.0
1798 0.0 0.0 0.0
1762 0.0 0.0 0.0
1737 0.0 0.0 0.0
1799 0.0 0.0 0.0
1730 0.0 0.0 0.0
1802 0.0 0.0 0.0
1808 0.0 0.0 0.0
1815 0.0 0.0 0.0
1817 0.0 0.0 0.0
1805 0.0 0.0 0.0
1820 0.0 0.0 0.0
1816 0.0 0.0 0.0
1814 0.0 0.0 0.0
1801 0.0 0.0 0.0
1783 0.0 0.0 0.0
1741 0.0 0.0 0.0
1806 0.0 0.0 0.0
1729 0.0 0.0 0.0
1738 0.0 0.0 0.0
1776 0.0 0.0 0.0
1804 0.0 0.0 0.0
1768 0.0 0.0 0.0
1813 0.0 0.0 0.0
1819 0.0 0.0 0.0
1810 0.0 0.0 0.0
1812 0.0 0.0 0.0
1821 0.0 0.0 0.0
1823 0.0 0.0 0.0
1807 0.0 0.0 0.0
1811 0.0 0.0 0.0
1822 0.0 0.0 0.0
1767 0.0 0.0 0.0
1754 0.0 0.0 0.0
1780 0.0 0.0 0.0
1791 0.0 0.0 0.0
1803 0.0 0.0 0.0
1826 0.0 0.0 0.0
1827 0.0 0.0 0.0
1829 0.0 0.0 0.0
1832 0.0 0.0 0.0
1753 0.0 0.0 0.0
1830 0.0 0.0 0.0
1818 0.0 0.0 0.0
1825 0.0 0.0 0.0
1831 0.0 0.0 0.0
1750 0.0 0.0 0.0
1809 0.0 0.0 0.0
1758 0.0 0.0 0.0
1761 0.0 0.0 0.0
1800 0.0 0.0 0.0
1824 0.0 0.0 0.0
1828 0.0 0.0 0.0
1833 0.0 0.0 0.0
1834 0.0 0.0 0.0
1835 0.0 0.0 0.0
1836 0.0 0.0 0.0
1844 0.0 0.0 0.0
1851 0.0 0.0 0.0
1874 0.0 0.0 0.0
1889 0.0 0.0 0.0
1880 0.0 0.0 0.0
1855 0.0 0.0 0.0
1873 0.0 0.0 0.0
1839 0.0 0.0 0.0
1852 0.0 0.0 0.0
1892 0.0 0.0 0.0
1850 0.0 0.0 0.0
1853 0.0 0.0 0.0
1887 0.0 0.0 0.0
1841 0.0 0.0 0.0
1840 0.0 0.0 0.0
1885 0.0 0.0 0.0
1878 0.0 0.0 0.0
1848 0.0 0.0 0.0
1859 0.0 0.0 0.0
1882 0.0 0.0 0.0
1893 0.0 0.0 0.0
1857 0.0 0.0 0.0
1895 0.0 0.0 0.0
1843 0.0 0.0 0.0
1847 0.0 0.0 0.0
1842 0.0 0.0 0.0
1883 0.0 0.0 0.0
1877 0.0 0.0 0.0
1856 0.0 0.0 0.0
1854 0.0 0.0 0.0
1886 0.0 0.0 0.0
1863 0.0 0.0 0.0
1868 0.0 0.0 0.0
1898 0.0 0.0 0.0
1901 0.0 0.0 0.0
1864 0.0 0.0 0.0
1865 0.0 0.0 0.0
1879 0.0 0.0 0.0
1900 0.0 0.0 0.0
1904 0.0 0.0 0.0
1903 0.0 0.0 0.0
1890 0.0 0.0 0.0
1894 0.0 0.0 0.0
1897 0.0 0.0 0.0
1896 0.0 0.0 0.0
1902 0.0 0.0 0.0
1867 0.0 0.0 0.0
1860 0.0 0.0 0.0
1881 0.0 0.0 0.0
1871 0.0 0.0 0.0
1872 0.0 0.0 0.0
1905 0.0 0.0 0.0
1906 0.0 0.0 0.0
1870 0.0 0.0 0.0
1845 0.0 0.0 0.0
1907 0.0 0.0 0.0
1838 0.0 0.0 0.0
1910 0.0 0.0 0.0
1916 0.0 0.0 0.0
1923 0.0 0.0 0.0
1925 0.0 0.0 0.0
1913 0.0 0.0 0.0
1928 0.0 0.0 0.0
1924 0.0 0.0 0.0
1922 0.0 0.0 0.0
1909 0.0 0.0 0.0
1891 0.0 0.0 0.0
1849 0.0 0.0 0.0
1914 0.0 0.0 0.0
1837 0.0 0.0 0.0
1846 0.0 0.0 0.0
1884 0.0 0.0 0.0
1912 0.0 0.0 0.0
1876 0.0 0.0 0.0
1921 0.0 0.0 0.0
1927 0.0 0.0 0.0
1918 0.0 0.0 0.0
1920 0.0 0.0 0.0
1929 0.0 0.0 0.0
1931 0.0 0.0 0.0
1915 0.0 0.0 0.0
1919 0.0 0.0 0.0
1930 0.0 0.0 0.0
1875 0.0 0.0 0.0
1862 0.0 0.0 0.0
1888 0.0 0.0 0.0
1899 0.0 0.0 0.0
1911 0.0 0.0 0.0
1934 0.0 0.0 0.0
1935 0.0 0.0 0.0
1937 0.0 0.0 0.0
1940 0.0 0.0 0.0
1861 0.0 0.0 0.0
1938 0.0 0.0 0.0
1926 0.0 0.0 0.0
1933 0.0 0.0 0.0
1939 0.0 0.0 0.0
1858 0.0 0.0 0.0
1917 0.0 0.0 0.0
1866 0.0 0.0 0.0
1869 0.0 0.0 0.0
1908 0.0 0.0 0.0
1932 0.0 0.0 0.0
1936 0.0 0.0 0.0
1941 0.0 0.0 0.0
1942 0.0 0.0 0.0
1943 0.0 0.0 0.0
1944 0.0 0.0 0.0
1952 0.0 0.0 0.0
1959 0.0 0.0 0.0
1982 0.0 0.0 0.0
1997 0.0 0.0 0.0
1988 0.0 0.0 0.0
1963 0.0 0.0 0.0
1981 0.0 0.0 0.0
1947 0.0 0.0 0.0
1960 0.0 0.0 0.0
2000 0.0 0.0 0.0
1958 0.0 0.0 0.0
1961 0.0 0.0 0.0
1995 0.0 0.0 0.0
1949 0.0 0.0 0.0
1948 0.0 0.0 0.0
1993 0.0 0.0 0.0
1986 0.0 0.0 0.0
1956 0.0 0.0 0.0
1967 0.0 0.0 0.0
1990 0.0 0.0 0.0
2001 0.0 0.0 0.0
1965 0.0 0.0 0.0
2003 0.0 0.0 0.0
1951 0.0 0.0 0.0
1955 0.0 0.0 0.0
1950 0.0 0.0 0.0
1991 0.0 0.0 0.0
1985 0.0 0.0 0.0
1964 0.0 0.0 0.0
1962 0.0 0.0 0.0
1994 0.0 0.0 0.0
1971 0.0 0.0 0.0
1976 0.0 0.0 0.0
2006 0.0 0.0 0.0
2009 0.0 0.0 0.0
1972 0.0 0.0 0.0
1973 0.0 0.0 0.0
1987 0.0 0.0 0.0
2008 0.0 0.0 0.0
2012 0.0 0.0 0.0
2011 0.0 0.0 0.0
1998 0.0 0.0 0.0
2002 0.0 0.0 0.0
2005 0.0 0.0 0.0
2004 0.0 0.0 0.0
2010 0.0 0.0 0.0
1975 0.0 0.0 0.0
1968 0.0 0.0 0.0
1989 0.0 0.0 0.0
1979 0.0 0.0 0.0
1980 0.0 0.0 0.0
2013 0.0 0.0 0.0
2014 0.0 0.0 0.0
1978 0.0 0.0 0.0
1953 0.0 0.0 0.0
2015 0.0 0.0 0.0
1946 0.0 0.0 0.0
2018 0.0 0.0 0.0
2024 0.0 0.0 0.0
2031 0.0 0.0 0.0
2033 0.0 0.0 0.0
2021 0.0 0.0 0.0
2036 0.0 0.0 0.0
2032 0.0 0.0 0.0
2030 0.0 0.0 0.0
2017 0.0 0.0 0.0
1999 0.0 0.0 0.0
1957 0.0 0.0 0.0
2022 0.0 0.0 0.0
1945 0.0 0.0 0.0
1954 0.0 0.0 0.0
1992 0.0 0.0 0.0
2020 0.0 0.0 0.0
1984 0.0 0.0 0.0
2029 0.0 0.0 0.0
2035 0.0 0.0 0.0
2026 0.0 0.0 0.0
2028 0.0 0.0 0.0
2037 0.0 0.0 0.0
2039 0.0 0.0 0.0
2023 0.0 0.0 0.0
2027 0.0 0.0 0.0
2038 0.0 0.0 0.0
1983 0.0 0.0 0.0
1970 0.0 0.0 0.0
1996 0.0 0.0 0.0
2007 0.0 0.0 0.0
2019 0.0 0.0 0.0
2042 0.0 0.0 0.0
2043 0.0 0.0 0.0
2045 0.0 0.0 0.0
2048 0.0 0.0 0.0
1969 0.0 0.0 0.0
2046 0.0 0.0 0.0
2034 0.0 0.0 0.0
2041 0.0 0.0 0.0
2047 0.0 0.0 0.0
1966 0.0 0.0 0.0
2025 0.0 0.0 0.0
1974 0.0 0.0 0.0
1977 0.0 0.0 0.0
2016 0.0 0.0 0.0
2040 0.0 0.0 0.0
2044 0.0 0.0 0.0
2049 0.0 0.0 0.0
2050 0.0 0.0 0.0
2051 0.0 0.0 0.0
2052 0.0 0.0 0.0
2060 0.0 0.0 0.0
2067 0.0 0.0 0.0
2090 0.0 0.0 0.0
2105 0.0 0.0 0.0
2096 0.0 0.0 0.0
2071 0.0 0.0 0.0
2089 0.0 0.0 0.0
2055 0.0 0.0 0.0
2068 0.0 0.0 0.0
2108 0.0 0.0 0.0
2066 0.0 0.0 0.0
2069 0.0 0.0 0.0
2103 0.0 0.0 0.0
2057 0.0 0.0 0.0
2056 0.0 0.0 0.0
2101 0.0 0.0 0.0
2094 0.0 0.0 0.0
2064 0.0 0.0 0.0
2075 0.0 0.0 0.0
2098 0.0 0.0 0.0
2109 0.0 0.0 0.0
2073 0.0 0.0 0.0
2111 0.0 0.0 0.0
2059 0.0 0.0 0.0
2063 0.0 0.0 0.0
2058 0.0 0.0 0.0
2099 0.0 0.0 0.0
2093 0.0 0.0 0.0
2072 0.0 0.0 0.0
2070 0.0 0.0 0.0
2102 0.0 0.0 0.0
2079 0.0 0.0 0.0
2084 0.0 0.0 0.0
2114 0.0 0.0 0.0
2117 0.0 0.0 0.0
2080 0.0 0.0 0.0
2081 0.0 0.0 0.0
2095 0.0 0.0 0.0
2116 0.0 0.0 0.0
2120 0.0 0.0 0.0
2119 0.0 0.0 0.0
2106 0.0 0.0 0.0
2110 0.0 0.0 0.0
2113 0.0 0.0 0.0
2112 0.0 0.0 0.0
2118 0.0 0.0 0.0
2083 0.0 0.0 0.0
2076 0.0 0.0 0.0
2097 0.0 0.0 0.0
2087 0.0 0.0 0.0
2088 0.0 0.0 0.0
2121 0.0 0.0 0.0
2122 0.0 0.0 0.0
2086 0.0 0.0 0.0
2061 0.0 0.0 0.0
2123 0.0 0.0 0.0
2054 0.0 0.0 0.0
2126 0.0 0.0 0.0
2132 0.0 0.0 0.0
2139 0.0 0.0 0.0
2141 0.0 0.0 0.0
2129 0.0 0.0 0.0
2144 0.0 0.0 0.0
2140 0.0 0.0 0.0
2138 0.0 0.0 0.0
2125 0.0 0.0 0.0
2107 0.0 0.0 0.0
2065 0.0 0.0 0.0
2130 0.0 0.0 0.0
2053 0.0 0.0 0.0
2062 0.0 0.0 0.0
2100 0.0 0.0 0.0
2128 0.0 0.0 0.0
2092 0.0 0.0 0.0
2137 0.0 0.0 0.0
2143 0.0 0.0 0.0
2134 0.0 0.0 0.0
2136 0.0 0.0 0.0
2145 0.0 0.0 0.0
2147 0.0 0.0 0.0
2131 0.0 0.0 0.0
2135 0.0 0.0 0.0
2146 0.0 0.0 0.0
2091 0.0 0.0 0.0
2078 0.0 0.0 0.0
2104 0.0 0.0 0.0
2115 0.0 0.0 0.0
2127 0.0 0.0 0.0
2150 0.0 0.0 0.0
2151 0.0 0.0 0.0
2153 0.0 0.0 0.0
2156 0.0 0.0 0.0
2077 0.0 0.0 0.0
2154 0.0 0.0 0.0
2142 0.0 0.0 0.0
2149 0.0 0.0 0.0
2155 0.0 0.0 0.0
2074 0.0 0.0 0.0
2133 0.0 0.0 0.0
2082 0.0 0.0 0.0
2085 0.0 0.0 0.0
2124 0.0 0.0 0.0
2148 0.0 0.0 0.0
2152 0.0 0.0 0.0
2157 0.0 0.0 0.0
2158 0.0 0.0 0.0
2159 0.0 0.0 0.0
2160 0.0 0.0 0.0
2168 0.0 0.0 0.0
2175 0.0 0.0 0.0
2198 0.0 0.0 0.0
2213 0.0 0.0 0.0
2204 0.0 0.0 0.0
2179 0.0 0.0 0.0
2197 0.0 0.0 0.0
2163 0.0 0.0 0.0
2176 0.0 0.0 0.0
2216 0.0 0.0 0.0
2174 0.0 0.0 0.0
2177 0.0 0.0 0.0
2211 0.0 0.0 0.0
2165 0.0 0.0 0.0
2164 0.0 0.0 0.0
2209 0.0 0.0 0.0
2202 0.0 0.0 0.0
2172 0.0 0.0 0.0
2183 0.0 0.0 0.0
2206 0.0 0.0 0.0
2217 0.0 0.0 0.0
2181 0.0 0.0 0.0
2219 0.0 0.0 0.0
2167 0.0 0.0 0.0
2171 0.0 0.0 0.0
2166 0.0 0.0 0.0
2207 0.0 0.0 0.0
2201 0.0 0.0 0.0
2180 0.0 0.0 0.0
2178 0.0 0.0 0.0
2210 0.0 0.0 0.0
2187 0.0 0.0 0.0
2192 0.0 0.0 0.0
2222 0.0 0.0 0.0
2225 0.0 0.0 0.0
2188 0.0 0.0 0.0
2189 0.0 0.0 0.0
2203 0.0 0.0 0.0
2224 0.0 0.0 0.0
2228 0.0 0.0 0.0
2227 0.0 0.0 0.0
2214 0.0 0.0 0.0
2218 0.0 0.0 0.0
2221 0.0 0.0 0.0
2220 0.0 0.0 0.0
2226 0.0 0.0 0.0
2191 0.0 0.0 0.0
2184 0.0 0.0 0.0
2205 0.0 0.0 0.0
2195 0.0 0.0 0.0
2196 0.0 0.0 0.0
2229 0.0 0.0 0.0
2230 0.0 0.0 0.0
2194 0.0 0.0 0.0
2169 0.0 0.0 0.0
2231 0.0 0.0 0.0
2162 0.0 0.0 0.0
2234 0.0 0.0 0.0
2240 0.0 0.0 0.0
2247 0.0 0.0 0.0
2249 0.0 0.0 0.0
2237 0.0 0.0 0.0
2252 0.0 0.0 0.0
2248 0.0 0.0 0.0
2246 0.0 0.0 0.0
2233 0.0 0.0 0.0
2215 0.0 0.0 0.0
2173 0.0 0.0 0.0
2238 0.0 0.0 0.0
2161 0.0 0.0 0.0
2170 0.0 0.0 0.0
2208 0.0 0.0 0.0
2236 0.0 0.0 0.0
2200 0.0 0.0 0.0
2245 0.0 0.0 0.0
2251 0.0 0.0 0.0
2242 0.0 0.0 0.0
2244 0.0 0.0 0.0
2253 0.0 0.0 0.0
2255 0.0 0.0 0.0
2239 0.0 0.0 0.0
2243 0.0 0.0 0.0
2254 0.0 0.0 0.0
2199 0.0 0.0 0.0
2186 0.0 0.0 0.0
2212 0.0 0.0 0.0
2223 0.0 0.0 0.0
2235 0.0 0.0 0.0
2258 0.0 0.0 0.0
2259 0.0 0.0 0.0
2261 0.0 0.0 0.0
2264 0.0 0.0 0.0
2185 0.0 0.0 0.0
2262 0.0 0.0 0.0
2250 0.0 0.0 0.0
2257 0.0 0.0 0.0
2263 0.0 0.0 0.0
2182 0.0 0.0 0.0
2241 0.0 0.0 0.0
2190 0.0 0.0 0.0
2193 0.0 0.0 0.0
2232 0.0 0.0 0.0
2256 0.0 0.0 0.0
2260 0.0 0.0 0.0
2265 0.0 0.0 0.0
2266 0.0 0.0 0.0
2267 0.0 0.0 0.0
2268 0.0 0.0 0.0
2276 0.0 0.0 0.0
2283 0.0 0.0 0.0
2306 0.0 0.0 0.0
2321 0.0 0.0 0.0
2312 0.0 0.0 0.0
2287 0.0 0.0 0.0
2305 0.0 0.0 0.0
2271 0.0 0.0 0.0
2284 0.0 0.0 0.0
2324 0.0 0.0 0.0
2282 0.0 0.0 0.0
2285 0.0 0.0 0.0
2319 0.0 0.0 0.0
2273 0.0 0.0 0.0
2272 0.0 0.0 0.0
2317 0.0 0.0 0.0
2310 0.0 0.0 0.0
2280 0.0 0.0 0.0
2291 0.0 0.0 0.0
2314 0.0 0.0 0.0
2325 0.0 0.0 0.0
2289 0.0 0.0 0.0
2327 0.0 0.0 0.0
2275 0.0 0.0 0.0
2279 0.0 0.0 0.0
2274 0.0 0.0 0.0
2315 0.0 0.0 0.0
2309 0.0 0.0 0.0
2288 0.0 0.0 0.0
2286 0.0 0.0 0.0
2318 0.0 0.0 0.0
2295 0.0 0.0 0.0
2300 0.0 0.0 0.0
2330 0.0 0.0 0.0
2333 0.0 0.0 0.0
2296 0.0 0.0 0.0
2297 0.0 0.0 0.0
2311 0.0 0.0 0.0
2332 0.0 0.0 0.0
2336 0.0 0.0 0.0
2335 0.0 0.0 0.0
2322 0.0 0.0 0.0
2326 0.0 0.0 0.0
2329 0.0 0.0 0.0
2328 0.0 0.0 0.0
2334 0.0 0.0 0.0
2299 0.0 0.0 0.0
2292 0.0 0.0 0.0
2313 0.0 0.0 0.0
2303 0.0 0.0 0.0
2304 0.0 0.0 0.0
2337 0.0 0.0 0.0
2338 0.0 0.0 0.0
2302 0.0 0.0 0.0
2277 0.0 0.0 0.0
2339 0.0 0.0 0.0
2270 0.0 0.0 0.0
2342 0.0 0.0 0.0
2348 0.0 0.0 0.0
2355 0.0 0.0 0.0
2357 0.0 0.0 0.0
2345 0.0 0.0 0.0
2360 0.0 0.0 0.0
2356 0.0 0.0 0.0
2354 0.0 0.0 0.0
2341 0.0 0.0 0.0
2323 0.0 0.0 0.0
2281 0.0 0.0 0.0
2346 0.0 0.0 0.0
2269 0.0 0.0 0.0
2278 0.0 0.0 0.0
2316 0.0 0.0 0.0
2344 0.0 0.0 0.0
2308 0.0 0.0 0.0
2353 0.0 0.0 0.0
2359 0.0 0.0 0.0
2350 0.0 0.0 0.0
2352 0.0 0.0 0.0
2361 0.0 0.0 0.0
2363 0.0 0.0 0.0
2347 0.0 0.0 0.0
2351 0.0 0.0 0.0
2362 0.0 0.0 0.0
2307 0.0 0.0 0.0
2294 0.0 0.0 0.0
2320 0.0 0.0 0.0
2331 0.0 0.0 0.0
2343 0.0 0.0 0.0
2366 0.0 0.0 0.0
2367 0.0 0.0 0.0
2369 0.0 0.0 0.0
2372 0.0 0.0 0.0
2293 0.0 0.0 0.0
2370 0.0 0.0 0.0
2358 0.0 0.0 0.0
2365 0.0 0.0 0.0
2371 0.0 0.0 0.0
2290 0.0 0.0 0.0
2349 0.0 0.0 0.0
2298 0.0 0.0 0.0
2301 0.0 0.0 0.0
2340 0.0 0.0 0.0
2364 0.0 0.0 0.0
2368 0.0 0.0 0.0
2373 0.0 0.0 0.0
2374 0.0 0.0 0.0
2375 0.0 0.0 0.0
2376 0.0 0.0 0.0
2384 0.0 0.0 0.0
2391 0.0 0.0 0.0
2414 0.0 0.0 0.0
2429 0.0 0.0 0.0
2420 0.0 0.0 0.0
2395 0.0 0.0 0.0
2413 0.0 0.0 0.0
2379 0.0 0.0 0.0
2392 0.0 0.0 0.0
2432 0.0 0.0 0.0
2390 0.0 0.0 0.0
2393 0.0 0.0 0.0
2427 0.0 0.0 0.0
2381 0.0 0.0 0.0
2380 0.0 0.0 0.0
2425 0.0 0.0 0.0
2418 0.0 0.0 0.0
2388 0.0 0.0 0.0
2399 0.0 0.0 0.0
2422 0.0 0.0 0.0
2433 0.0 0.0 0.0
2397 0.0 0.0 0.0
2435 0.0 0.0 0.0
2383 0.0 0.0 0.0
2387 0.0 0.0 0.0
2382 0.0 0.0 0.0
2423 0.0 0.0 0.0
2417 0.0 0.0 0.0
2396 0.0 0.0 0.0
2394 0.0 0.0 0.0
2426 0.0 0.0 0.0
2403 0.0 0.0 0.0
2408 0.0 0.0 0.0
2438 0.0 0.0 0.0
2441 0.0 0.0 0.0
2404 0.0 0.0 0.0
2405 0.0 0.0 0.0
2419 0.0 0.0 0.0
2440 0.0 0.0 0.0
2444 0.0 0.0 0.0
2443 0.0 0.0 0.0
2430 0.0 0.0 0.0
2434 0.0 0.0 0.0
2437 0.0 0.0 0.0
2436 0.0 0.0 0.0
2442 0.0 0.0 0.0
2407 0.0 0.0 0.0
2400 0.0 0.0 0.0
2421 0.0 0.0 0.0
2411 0.0 0.0 0.0
2412 0.0 0.0 0.0
2445 0.0 0.0 0.0
2446 0.0 0.0 0.0
2410 0.0 0.0 0.0
2385 0.0 0.0 0.0
2447 0.0 0.0 0.0
2378 0.0 0.0 0.0
2450 0.0 0.0 0.0
2456 0.0 0.0 0.0
2463 0.0 0.0 0.0
2465 0.0 0.0 0.0
2453 0.0 0.0 0.0
2468 0.0 0.0 0.0
2464 0.0 0.0 0.0
2462 0.0 0.0 0.0
2449 0.0 0.0 0.0
2431 0.0 0.0 0.0
2389 0.0 0.0 0.0
2454 0.0 0.0 0.0
2377 0.0 0.0 0.0
2386 0.0 0.0 0.0
2424 0.0 0.0 0.0
2452 0.0 0.0 0.0
2416 0.0 0.0 0.0
2461 0.0 0.0 0.0
2467 0.0 0.0 0.0
2458 0.0 0.0 0.0
2460 0.0 0.0 0.0
2469 0.0 0.0 0.0
2471 0.0 0.0 0.0
2455 0.0 0.0 0.0
2459 0.0 0.0 0.0
2470 0.0 0.0 0.0
2415 0.0 0.0 0.0
2402 0.0 0.0 0.0
2428 0.0 0.0 0.0
2439 0.0 0.0 0.0
2451 0.0 0.0 0.0
2474 0.0 0.0 0.0
2475 0.0 0.0 0.0
2477 0.0 0.0 0.0
2480 0.0 0.0 0.0
2401 0.0 0.0 0.0
2478 0.0 0.0 0.0
2466 0.0 0.0 0.0
2473 0.0 0.0 0.0
2479 0.0 0.0 0.0
2398 0.0 0.0 0.0
2457 0.0 0.0 0.0
2406 0.0 0.0 0.0
2409 0.0 0.0 0.0
2448 0.0 0.0 0.0
2472 0.0 0.0 0.0
2476 0.0 0.0 0.0
2481 0.0 0.0 0.0
2482 0.0 0.0 0.0
2483 0.0 0.0 0.0
2484 0.0 0.0 0.0
2492 0.0 0.0 0.0
2499 0.0 0.0 0.0
2522 0.0 0.0 0.0
2537 0.0 0.0 0.0
2528 0.0 0.0 0.0
2503 0.0 0.0 0.0
2521 0.0 0.0 0.0
2487 0.0 0.0 0.0
2500 0.0 0.0 0.0
2540 0.0 0.0 0.0
2498 0.0 0.0 0.0
2501 0.0 0.0 0.0
2535 0.0 0.0 0.0
2489 0.0 0.0 0.0
2488 0.0 0.0 0.0
2533 0.0 0.0 0.0
2526 0.0 0.0 0.0
2496 0.0 0.0 0.0
2507 0.0 0.0 0.0
2530 0.0 0.0 0.0
2541 0.0 0.0 0.0
2505 0.0 0.0 0.0
2543 0.0 0.0 0.0
2491 0.0 0.0 0.0
2495 0.0 0.0 0.0
2490 0.0 0.0 0.0
2531 0.0 0.0 0.0
2525 0.0 0.0 0.0
2504 0.0 0.0 0.0
2502 0.0 0.0 0.0
2534 0.0 0.0 0.0
2511 0.0 0.0 0.0
2516 0.0 0.0 0.0
2546 0.0 0.0 0.0
2549 0.0 0.0 0.0
2512 0.0 0.0 0.0
2513 0.0 0.0 0.0
2527 0.0 0.0 0.0
2548 0.0 0.0 0.0
2552 0.0 0.0 0.0
2551 0.0 0.0 0.0
2538 0.0 0.0 0.0
2542 0.0 0.0 0.0
2545 0.0 0.0 0.0
2544 0.0 0.0 0.0
2550 0.0 0.0 0.0
2515 0.0 0.0 0.0
2508 0.0 0.0 0.0
2529 0.0 0.0 0.0
2519 0.0 0.0 0.0
2520 0.0 0.0 0.0
2553 0.0 0.0 0.0
2554 0.0 0.0 0.0
2518 0.0 0.0 0.0
2493 0.0 0.0 0.0
2555 0.0 0.0 0.0
2486 0.0 0.0 0.0
2558 0.0 0.0 0.0
2564 0.0 0.0 0.0
2571 0.0 0.0 0.0
2573 0.0 0.0 0.0
2561 0.0 0.0 0.0
2576 0.0 0.0 0.0
2572 0.0 0.0 0.0
2570 0.0 0.0 0.0
2557 0.0 0.0 0.0
2539 0.0 0.0 0.0
2497 0.0 0.0 0.0
2562 0.0 0.0 0.0
2485 0.0 0.0 0.0
2494 0.0 0.0 0.0
2532 0.0 0.0 0.0
2560 0.0 0.0 0.0
2524 0.0 0.0 0.0
2569 0.0 0.0 0.0
2575 0.0 0.0 0.0
2566 0.0 0.0 0.0
2568 0.0 0.0 0.0
2577 0.0 0.0 0.0
2579 0.0 0.0 0.0
2563 0.0 0.0 0.0
2567 0.0 0.0 0.0
2578 0.0 0.0 0.0
2523 0.0 0.0 0.0
2510 0.0 0.0 0.0
2536 0.0 0.0 0.0
2547 0.0 0.0 0.0
2559 0.0 0.0 0.0
2582 0.0 0.0 0.0
2583 0.0 0.0 0.0
2585 0.0 0.0 0.0
2588 0.0 0.0 0.0
2509 0.0 0.0 0.0
2586 0.0 0.0 0.0
2574 0.0 0.0 0.0
2581 0.0 0.0 0.0
2587 0.0 0.0 0.0
2506 0.0 0.0 0.0
2565 0.0 0.0 0.0
2514 0.0 0.0 0.0
2517 0.0 0.0 0.0
2556 0.0 0.0 0.0
2580 0.0 0.0 0.0
2584 0.0 0.0 0.0
2589 0.0 0.0 0.0
2590 0.0 0.0 0.0
2591 0.0 0.0 0.0
2592 0.0 0.0 0.0
2600 0.0 0.0 0.0
2607 0.0 0.0 0.0
2630 0.0 0.0 0.0
2645 0.0 0.0 0.0
2636 0.0 0.0 0.0
2611 0.0 0.0 0.0
2629 0.0 0.0 0.0
2595 0.0 0.0 0.0
2608 0.0 0.0 0.0
2648 0.0 0.0 0.0
2606 0.0 0.0 0.0
2609 0.0 0.0 0.0
2643 0.0 0.0 0.0
2597 0.0 0.0 0.0
2596 0.0 0.0 0.0
2641 0.0 0.0 0.0
2634 0.0 0.0 0.0
2604 0.0 0.0 0.0
2615 0.0 0.0 0.0
2638 0.0 0.0 0.0
2649 0.0 0.0 0.0
2613 0.0 0.0 0.0
2651 0.0 0.0 0.0
2599 0.0 0.0 0.0
2603 0.0 0.0 0.0
2598 0.0 0.0 0.0
2639 0.0 0.0 0.0
2633 0.0 0.0 0.0
2612 0.0 0.0 0.0
2610 0.0 0.0 0.0
2642 0.0 0.0 0.0
2619 0.0 0.0 0.0
2624 0.0 0.0 0.0
2654 0.0 0.0 0.0
2657 0.0 0.0 0.0
2620 0.0 0.0 0.0
2621 0.0 0.0 0.0
2635 0.0 0.0 0.0
2656 0.0 0.0 0.0
2660 0.0 0.0 0.0
2659 0.0 0.0 0.0
2646 0.0 0.0 0.0
2650 0.0 0.0 0.0
2653 0.0 0.0 0.0
2652 0.0 0.0 0.0
2658 0.0 0.0 0.0
2623 0.0 0.0 0.0
2616 0.0 0.0 0.0
2637 0.0 0.0 0.0
2627 0.0 0.0 0.0
2628 0.0 0.0 0.0
2661 0.0 0.0 0.0
2662 0.0 0.0 0.0
2626 0.0 0.0 0.0
2601 0.0 0.0 0.0
2663 0.0 0.0 0.0
2594 0.0 0.0 0.0
2666 0.0 0.0 0.0
2672 0.0 0.0 0.0
2679 0.0 0.0 0.0
2681 0.0 0.0 0.0
2669 0.0 0.0 0.0
2684 0.0 0.0 0.0
2680 0.0 0.0 0.0
2678 0.0 0.0 0.0
2665 0.0 0.0 0.0
2647 0.0 0.0 0.0
2605 0.0 0.0 0.0
2670 0.0 0.0 0.0
2593 0.0 0.0 0.0
2602 0.0 0.0 0.0
2640 0.0 0.0 0.0
2668 0.0 0.0 0.0
2632 0.0 0.0 0.0
2677 0.0 0.0 0.0
2683 0.0 0.0 0.0
2674 0.0 0.0 0.0
2676 0.0 0.0 0.0
2685 0.0 0.0 0.0
2687 0.0 0.0 0.0
2671 0.0 0.0 0.0
2675 0.0 0.0 0.0
2686 0.0 0.0 0.0
2631 0.0 0.0 0.0
2618 0.0 0.0 0.0
2644 0.0 0.0 0.0
2655 0.0 0.0 0.0
2667 0.0 0.0 0.0
2690 0.0 0.0 0.0
2691 0.0 0.0 0.0
2693 0.0 0.0 0.0
2696 0.0 0.0 0.0
2617 0.0 0.0 0.0
2694 0.0 0.0 0.0
2682 0.0 0.0 0.0
2689 0.0 0.0 0.0
2695 0.0 0.0 0.0
2614 0.0 0.0 0.0
2673 0.0 0.0 0.0
2622 0.0 0.0 0.0
2625 0.0 0.0 0.0
2664 0.0 0.0 0.0
2688 0.0 0.0 0.0
2692 0.0 0.0 0.0
2697 0.0 0.0 0.0
2698 0.0 0.0 0.0
2699 0.0 0.0 0.0
2700 0.0 0.0 0.0
2708 0.0 0.0 0.0
2715 0.0 0.0 0.0
2738 0.0 0.0 0.0
2753 0.0 0.0 0.0
2744 0.0 0.0 0.0
2719 0.0 0.0 0.0
2737 0.0 0.0 0.0
2703 0.0 0.0 0.0
2716 0.0 0.0 0.0
2756 0.0 0.0 0.0
2714 0.0 0.0 0.0
2717 0.0 0.0 0.0
2751 0.0 0.0 0.0
2705 0.0 0.0 0.0
2704 0.0 0.0 0.0
2749 0.0 0.0 0.0
2742 0.0 0.0 0.0
2712 0.0 0.0 0.0
2723 0.0 0.0 0.0
2746 0.0 0.0 0.0
2757 0.0 0.0 0.0
2721 0.0 0.0 0.0
2759 0.0 0.0 0.0
2707 0.0 0.0 0.0
2711 0.0 0.0 0.0
2706 0.0 0.0 0.0
2747 0.0 0.0 0.0
2741 0.0 0.0 0.0
2720 0.0 0.0 0.0
2718 0.0 0.0 0.0
2750 0.0 0.0 0.0
2727 0.0 0.0 0.0
2732 0.0 0.0 0.0
2762 0.0 0.0 0.0
2765 0.0 0.0 0.0
2728 0.0 0.0 0.0
2729 0.0 0.0 0.0
2743 0.0 0.0 0.0
2764 0.0 0.0 0.0
2768 0.0 0.0 0.0
2767 0.0 0.0 0.0
2754 0.0 0.0 0.0
2758 0.0 0.0 0.0
2761 0.0 0.0 0.0
2760 0.0 0.0 0.0
2766 0.0 0.0 0.0
2731 0.0 0.0 0.0
2724 0.0 0.0 0.0
2745 0.0 0.0 0.0
2735 0.0 0.0 0.0
2736 0.0 0.0 0.0
2769 0.0 0.0 0.0
2770 0.0 0.0 0.0
2734 0.0 0.0 0.0
2709 0.0 0.0 0.0
2771 0.0 0.0 0.0
2702 0.0 0.0 0.0
2774 0.0 0.0 0.0
2780 0.0 0.0 0.0
2787 0.0 0.0 0.0
2789 0.0 0.0 0.0
2777 0.0 0.0 0.0
2792 0.0 0.0 0.0
2788 0.0 0.0 0.0
2786 0.0 0.0 0.0
2773 0.0 0.0 0.0
2755 0.0 0.0 0.0
2713 0.0 0.0 0.0
2778 0.0 0.0 0.0
2701 0.0 0.0 0.0
2710 0.0 0.0 0.0
2748 0.0 0.0 0.0
2776 0.0 0.0 0.0
2740 0.0 0.0 0.0
2785 0.0 0.0 0.0
2791 0.0 0.0 0.0
2782 0.0 0.0 0.0
2784 0.0 0.0 0.0
2793 0.0 0.0 0.0
2795 0.0 0.0 0.0
2779 0.0 0.0 0.0
2783 0.0 0.0 0.0
2794 0.0 0.0 0.0
2739 0.0 0.0 0.0
2726 0.0 0.0 0.0
2752 0.0 0.0 0.0
2763 0.0 0.0 0.0
2775 0.0 0.0 0.0
2798 0.0 0.0 0.0
2799 0.0 0.0 0.0
2801 0.0 0.0 0.0
2804 0.0 0.0 0.0
2725 0.0 0.0 0.0
2802 0.0 0.0 0.0
2790 0.0 0.0 0.0
2797 0.0 0.0 0.0
2803 0.0 0.0 0.0
2722 0.0 0.0 0.0
2781 0.0 0.0 0.0
2730 0.0 0.0 0.0
2733 0.0 0.0 0.0
2772 0.0 0.0 0.0
2796 0.0 0.0 0.0
2800 0.0 0.0 0.0
2805 0.0 0.0 0.0
2806 0.0 0.0 0.0
2807 0.0 0.0 0.0
2808 0.0 0.0 0.0
2816 0.0 0.0 0.0
2823 0.0 0.0 0.0
2846 0.0 0.0 0.0
2861 0.0 0.0 0.0
2852 0.0 0.0 0.0
2827 0.0 0.0 0.0
2845 0.0 0.0 0.0
2811 0.0 0.0 0.0
2824 0.0 0.0 0.0
2864 0.0 0.0 0.0
2822 0.0 0.0 0.0
2825 0.0 0.0 0.0
2859 0.0 0.0 0.0
2813 0.0 0.0 0.0
2812 0.0 0.0 0.0
2857 0.0 0.0 0.0
2850 0.0 0.0 0.0
2820 0.0 0.0 0.0
2831 0.0 0.0 0.0
2854 0.0 0.0 0.0
2865 0.0 0.0 0.0
2829 0.0 0.0 0.0
2867 0.0 0.0 0.0
2815 0.0 0.0 0.0
2819 0.0 0.0 0.0
2814 0.0 0.0 0.0
2855 0.0 0.0 0.0
2849 0.0 0.0 0.0
2828 0.0 0.0 0.0
2826 0.0 0.0 0.0
2858 0.0 0.0 0.0
2835 0.0 0.0 0.0
2840 0.0 0.0 0.0
2870 0.0 0.0 0.0
2873 0.0 0.0 0.0
2836 0.0 0.0 0.0
2837 0.0 0.0 0.0
2851 0.0 0.0 0.0
2872 0.0 0.0 0.0
2876 0.0 0.0 0.0
2875 0.0 0.0 0.0
2862 0.0 0.0 0.0
2866 0.0 0.0 0.0
2869 0.0 0.0 0.0
2868 0.0 0.0 0.0
2874 0.0 0.0 0.0
2839 0.0 0.0 0.0
2832 0.0 0.0 0.0
2853 0.0 0.0 0.0
2843 0.0 0.0 0.0
2844 0.0 0.0 0.0
2877 0.0 0.0 0.0
2878 0.0 0.0 0.0
2842 0.0 0.0 0.0
2817 0.0 0.0 0.0
2879 0.0 0.0 0.0
2810 0.0 0.0 0.0
2882 0.0 0.0 0.0
2888 0.0 0.0 0.0
2895 0.0 0.0 0.0
2897 0.0 0.0 0.0
2885 0.0 0.0 0.0
2900 0.0 0.0 0.0
2896 0.0 0.0 0.0
2894 0.0 0.0 0.0
2881 0.0 0.0 0.0
2863 0.0 0.0 0.0
2821 0.0 0.0 0.0
2886 0.0 0.0 0.0
2809 0.0 0.0 0.0
2818 0.0 0.0 0.0
2856 0.0 0.0 0.0
2884 0.0 0.0 0.0
2848 0.0 0.0 0.0
2893 0.0 0.0 0.0
2899 0.0 0.0 0.0
2890 0.0 0.0 0.0
2892 0.0 0.0 0.0
2901 0.0 0.0 0.0
2903 0.0 0.0 0.0
2887 0.0 0.0 0.0
2891 0.0 0.0 0.0
2902 0.0 0.0 0.0
2847 0.0 0.0 0.0
2834 0.0 0.0 0.0
2860 0.0 0.0 0.0
2871 0.0 0.0 0.0
2883 0.0 0.0 0.0
2906 0.0 0.0 0.0
2907 0.0 0.0 0.0
2909 0.0 0.0 0.0
2912 0.0 0.0 0.0
2833 0.0 0.0 0.0
2910 0.0 0.0 0.0
2898 0.0 0.0 0.0
2905 0.0 0.0 0.0
2911 0.0 0.0 0.0
2830 0.0 0.0 0.0
2889 0.0 0.0 0.0
2838 0.0 0.0 0.0
2841 0.0 0.0 0.0
2880 0.0 0.0 0.0
2904 0.0 0.0 0.0
2908 0.0 0.0 0.0
2913 0.0 0.0 0.0
2914 0.0 0.0 0.0
2915 0.0 0.0 0.0
2916 0.0 0.0 0.0
