LAMMPS data file via write_data, version 29 Oct 2020, timestep = 10000

108 atoms
1 atom types

0.0 10.9026 xlo xhi
0.0 10.9026 ylo yhi
0.0 10.9026 zlo zhi

Masses

1 63.546

Atoms # atomic

8 1 3.684410537535448 1.7285803564223978 1.8216267131349257
15 1 1.855799620368978 3.58685361540633 1.8658382426672893
38 1 1.705817218078718 1.7063147774037226 3.4670512335421195
53 1 3.544270339869786 3.6135740830690164 3.7163619725992008
44 1 3.5164598343827667 1.7630764733452133 5.372682914358216
19 1 5.367803081538759 3.6851635044914084 1.9258424821433449
37 1 0.053548505356463896 0.02749836685152296 3.665949979500187
3 1 1.7230793677678884 0.04888437267096535 1.7916706945555958
16 1 0.007497123140338414 5.401323533082474 1.731599738647399
56 1 3.5689489274952226 5.375657764314874 5.421156885885914
14 1 1.842803744895099 5.357376430362089 0.06383608233983
17 1 3.641932948402548 3.5997014053841334 0.003236713366393767
51 1 1.787813688831212 3.5790489944227186 5.4162116686301465
5 1 3.5939335014930904 0.002777902157865 0.007119205605014067
4 1 10.76456215938211 1.87604284197009 1.8568402524150718
49 1 10.813423054411356 3.5162073710920176 3.649022903221786
42 1 5.557463577262808 1.7978446306036633 3.6390965112852767
12 1 7.296027574461053 1.8916875140040035 1.7779591578385623
23 1 9.087250862551977 3.6517090130923 1.7331878261757692
46 1 8.958187944896753 1.7308593041149898 3.6614237615361898
57 1 7.172840944324833 3.575931942279478 3.6999880364484876
21 1 7.114846583643383 3.7739382207553267 0.04677928210457576
59 1 8.89910882728915 3.6311351121313424 5.399331319023486
7 1 5.497024618691746 0.02352931904456003 1.8882402156848312
11 1 9.167147624805096 0.07576845951963895 1.8250480431190004
6 1 5.562720655533932 1.841697300906988 0.09795342466492327
47 1 9.175117930545703 0.15903107990890802 5.44730953322179
41 1 3.6262380134251426 10.889804161905838 3.5564788487663836
20 1 3.6516293312481105 5.500656913213336 1.9587119198065277
18 1 5.391981490656871 5.452790869053711 0.0529969351569869
50 1 1.6728253973198985 5.5130658921663445 3.5544710624168983
27 1 1.709245340272029 7.278173815117082 1.8527166637807677
32 1 3.5851859526459235 9.152021943896779 1.775453277430493
62 1 1.8466498106121474 9.041446047840502 3.71059983436025
65 1 3.6153219242937644 7.279895569800304 3.3993429910367277
28 1 0.12984677534347633 9.08683786423209 1.7767824652889994
29 1 3.5350943643852344 7.239319389837157 0.0867203773583603
43 1 5.391542467664728 10.852076173237883 5.427180077087328
64 1 0.04950735931437012 9.184828001695541 5.438627926132937
68 1 3.7122716024295594 9.077547220129443 5.390432854472652
67 1 5.319119190000931 7.313480150366471 5.368011349356221
54 1 5.481310388553964 5.497685970093112 3.7681206402160314
58 1 9.364544973763834 5.45395232034958 3.6657280056621877
61 1 10.883920948819288 7.339937914120989 3.6043780178767135
60 1 7.333700919269497 5.579869907844297 5.376165955388319
66 1 5.496897189435315 9.082559402765694 3.4998573348798168
31 1 5.463132829295469 7.2294035712216385 1.8076569582606856
24 1 7.328300594300742 5.509758753612932 1.9163869815196415
45 1 7.284320663110432 10.887144183327424 3.591815532782629
35 1 9.107650796983378 7.301591668478944 1.650545738841002
36 1 7.2771401422193245 9.1490441083623 1.7842385400865208
69 1 7.367683616814855 7.30036786671051 3.6559857137305176
70 1 9.053596953608805 9.161393920841036 3.5347708026945184
34 1 9.246765901484215 9.122654814003933 0.06068836139195842
9 1 7.33803455653388 10.846839956634103 0.036747996595448695
71 1 9.100222781661353 7.3100174423419135 5.432715974956223
2 1 1.8539727620202746 1.8334732271757161 10.875340362056777
74 1 1.883606860867456 1.711268534946581 7.2235818165521835
80 1 3.7714131665936446 1.819154033251052 9.056246937716937
87 1 1.7593693762124796 3.549909221702907 9.083543027524248
89 1 3.639353735423366 3.58680521781506 7.469858562110948
77 1 3.739646188606242 0.1069088436429055 7.386480964298365
92 1 3.5944526223865423 5.400266498491478 9.0636889537157
88 1 0.04598337196667108 5.3551174206150955 9.185508655710624
86 1 1.6814381576969204 5.370381883901839 7.27212728866483
73 1 0.04460108254218298 0.036729818354697234 7.2659670497622395
55 1 5.59838057292392 3.7242410461028617 5.548341569359288
13 1 10.770103269985812 3.559012409204104 10.877643726897285
78 1 5.516932651324344 1.9001026362371822 7.37429824196504
1 1 10.80905198662409 0.0653271665265185 10.890743784809471
10 1 9.01791634424274 1.7537858444832448 10.897838988187534
48 1 7.215280848492683 1.7601501500240058 5.647075646293236
76 1 10.780603902058417 1.8630969019123313 9.05170038858197
40 1 10.8566962027596 1.8571367929848055 5.527946525371934
85 1 10.835280149978596 3.6244516565828864 7.161394235194607
91 1 5.573840586743378 3.805200681432788 9.1133824688534
82 1 9.102282891980414 1.8962152431915624 7.253658766160367
84 1 7.256754553131162 1.7890862911658652 9.101643915601835
93 1 7.33231496727473 3.681165946362207 7.21158851135398
95 1 9.03645839695628 3.7325446547650465 9.073914552075015
79 1 5.569188542101054 0.126231483408693 9.256242008431323
83 1 9.005785256850325 0.05218951993918175 9.027882436662273
94 1 9.065246055302381 5.431940914003579 7.246848780562232
39 1 1.897423903111891 10.777399342780551 5.519397110418739
26 1 1.7768169468685309 9.037363776461731 10.80138425033229
52 1 0.022743383028133776 5.5513804296144755 5.494633598670942
63 1 1.8273192965408571 7.306081037201299 5.470014123875116
75 1 1.9525526192555316 10.808527574519928 9.113332152724446
98 1 1.8751337984315002 9.05613228897702 7.393070630237352
99 1 1.7734962712094264 7.226402013208255 8.989102213385248
101 1 3.614712931777375 7.104042057290644 7.2100083844629
104 1 3.8083321071032015 8.978653342893153 9.153071587947213
25 1 0.10269402282479194 7.287234360561728 10.83065374325987
102 1 5.32305805480124 9.104502108899995 7.273093690487348
90 1 5.368134929517129 5.496820357341552 7.3415717780518515
97 1 0.00482608982339805 7.242797662444741 7.366271906075262
103 1 5.428409801942216 7.181216891314846 9.205750277118605
22 1 9.035470329818834 5.451541824201365 10.767318689196783
81 1 7.163586254089922 10.734324183626514 7.221004641445557
30 1 5.492892420720745 8.96889168972002 10.860672429295564
33 1 7.367474827479215 7.198497456667136 10.851458250568449
72 1 7.259332342613125 9.093121545281583 5.465134996656783
96 1 7.286300340104024 5.466793479658705 8.957316460139648
100 1 10.779472955389823 9.133643368964695 9.07145090659383
105 1 7.225103102697179 7.254542495785926 7.164621662226667
106 1 9.053355144912667 9.230438437937142 7.147780444051815
107 1 9.166977792846344 7.211330906475646 9.071220221142651
108 1 7.455302757624683 8.986247827938104 9.129883756113374

Velocities

8 0.0 0.0 0.0
15 0.0 0.0 0.0
38 0.0 0.0 0.0
53 0.0 0.0 0.0
44 0.0 0.0 0.0
19 0.0 0.0 0.0
37 0.0 0.0 0.0
3 0.0 0.0 0.0
16 0.0 0.0 0.0
56 0.0 0.0 0.0
14 0.0 0.0 0.0
17 0.0 0.0 0.0
51 0.0 0.0 0.0
5 0.0 0.0 0.0
4 0.0 0.0 0.0
49 0.0 0.0 0.0
42 0.0 0.0 0.0
12 0.0 0.0 0.0
23 0.0 0.0 0.0
46 0.0 0.0 0.0
57 0.0 0.0 0.0
21 0.0 0.0 0.0
59 0.0 0.0 0.0
7 0.0 0.0 0.0
11 0.0 0.0 0.0
6 0.0 0.0 0.0
47 0.0 0.0 0.0
41 0.0 0.0 0.0
20 0.0 0.0 0.0
18 0.0 0.0 0.0
50 0.0 0.0 0.0
27 0.0 0.0 0.0
32 0.0 0.0 0.0
62 0.0 0.0 0.0
65 0.0 0.0 0.0
28 0.0 0.0 0.0
29 0.0 0.0 0.0
43 0.0 0.0 0.0
64 0.0 0.0 0.0
68 0.0 0.0 0.0
67 0.0 0.0 0.0
54 0.0 0.0 0.0
58 0.0 0.0 0.0
61 0.0 0.0 0.0
60 0.0 0.0 0.0
66 0.0 0.0 0.0
31 0.0 0.0 0.0
24 0.0 0.0 0.0
45 0.0 0.0 0.0
35 0.0 0.0 0.0
36 0.0 0.0 0.0
69 0.0 0.0 0.0
70 0.0 0.0 0.0
34 0.0 0.0 0.0
9 0.0 0.0 0.0
71 0.0 0.0 0.0
2 0.0 0.0 0.0
74 0.0 0.0 0.0
80 0.0 0.0 0.0
87 0.0 0.0 0.0
89 0.0 0.0 0.0
77 0.0 0.0 0.0
92 0.0 0.0 0.0
88 0.0 0.0 0.0
86 0.0 0.0 0.0
73 0.0 0.0 0.0
55 0.0 0.0 0.0
13 0.0 0.0 0.0
78 0.0 0.0 0.0
1 0.0 0.0 0.0
10 0.0 0.0 0.0
48 0.0 0.0 0.0
76 0.0 0.0 0.0
40 0.0 0.0 0.0
85 0.0 0.0 0.0
91 0.0 0.0 0.0
82 0.0 0.0 0.0
84 0.0 0.0 0.0
93 0.0 0.0 0.0
95 0.0 0.0 0.0
79 0.0 0.0 0.0
83 0.0 0.0 0.0
94 0.0 0.0 0.0
39 0.0 0.0 0.0
26 0.0 0.0 0.0
52 0.0 0.0 0.0
63 0.0 0.0 0.0
75 0.0 0.0 0.0
98 0.0 0.0 0.0
99 0.0 0.0 0.0
101 0.0 0.0 0.0
104 0.0 0.0 0.0
25 0.0 0.0 0.0
102 0.0 0.0 0.0
90 0.0 0.0 0.0
97 0.0 0.0 0.0
103 0.0 0.0 0.0
22 0.0 0.0 0.0
81 0.0 0.0 0.0
30 0.0 0.0 0.0
33 0.0 0.0 0.0
72 0.0 0.0 0.0
96 0.0 0.0 0.0
100 0.0 0.0 0.0
105 0.0 0.0 0.0
106 0.0 0.0 0.0
107 0.0 0.0 0.0
108 0.0 0.0 0.0
