# LAMMPS data 
64 atoms
2 atom types
0.0 12.44470 xlo xhi
0.0 12.44470 ylo yhi
0.0 12.44470 zlo zhi


Masses

1 6.941    # Li (锂原子的原子量)
2 35.453   # Cl (氯原子的原子量)

Atoms # metal

1 1 3.152557 1.785592 4.424449    # Li
2 1 4.223546 3.785194 2.103906    # Li
3 1 0.037374 2.707621 3.854804    # Li
4 1 2.260544 11.139595 1.424818    # Li
5 1 9.288871 5.294494 0.276894    # Li
6 1 6.525893 11.728259 4.351859    # Li
7 1 8.504120 1.966354 11.310648    # Li
8 1 6.440073 2.261789 2.186525    # Li
9 1 10.649536 11.024965 3.745651    # Li
10 1 8.963569 2.280986 5.500738    # Li
11 1 0.620536 6.010227 11.364949    # Li
12 1 4.617076 1.592170 10.918888    # Li
13 1 5.539872 6.434138 1.877810    # Li
14 1 1.155142 10.526844 5.053650    # Li
15 1 0.338170 6.564202 3.570116    # Li
16 1 7.006620 10.397660 0.389104    # Li
17 1 3.554484 2.082868 4.933773    # Li
18 1 3.637324 4.520652 1.422473    # Li
19 1 1.235649 0.224596 4.692830    # Li
20 1 2.189697 1.579500 0.991667    # Li
21 1 9.533286 5.257007 11.728001    # Li
22 1 5.337942 11.284969 4.739566    # Li
23 1 7.649229 2.498476 10.944937    # Li
24 1 5.969099 2.780939 2.556667    # Li
25 1 9.711611 11.346500 2.880649    # Li
26 1 10.678280 2.502274 5.276420    # Li
27 1 1.096108 8.256309 1.469575    # Li
28 1 3.629961 2.628726 10.264159    # Li
29 1 6.065996 6.377311 2.273908    # Li
30 1 1.756050 8.487405 6.226803    # Li
31 1 11.374879 6.202459 3.384769    # Li
32 1 7.073882 10.352599 11.084682    # Li
33 2 3.112340 2.326598 4.032997    # Cl
34 2 3.986419 4.577832 1.908898    # Cl
35 2 0.373639 1.366254 4.185663    # Cl
36 2 1.860664 0.442952 1.909758    # Cl
37 2 10.024826 4.909650 0.371502    # Cl
38 2 5.898677 10.344392 4.538390    # Cl
39 2 7.424596 1.912135 11.660298    # Cl
40 2 6.133281 2.496638 2.949088    # Cl
41 2 9.049221 11.808263 3.620152    # Cl
42 2 10.345301 3.049815 5.692475    # Cl
43 2 1.525162 7.787629 1.044439    # Cl
44 2 3.569319 2.757838 10.734476    # Cl
45 2 6.201361 6.348413 2.194802    # Cl
46 2 1.836411 9.817664 4.958248    # Cl
47 2 11.753257 6.026737 3.905051    # Cl
48 2 7.467003 10.473819 10.659140    # Cl
49 2 3.766396 2.236229 4.326509    # Cl
50 2 3.686182 4.624737 1.596887    # Cl
51 2 1.083917 1.407389 3.733402    # Cl
52 2 1.578251 11.399539 1.475326    # Cl
53 2 9.523418 5.471569 0.229722    # Cl
54 2 5.702734 10.742325 3.583268    # Cl
55 2 8.241437 1.737416 11.431362    # Cl
56 2 7.129803 2.681053 2.940605    # Cl
57 2 9.633363 11.032533 3.725290    # Cl
58 2 10.628319 3.278046 5.802132    # Cl
59 2 0.814770 6.265468 11.669987    # Cl
60 2 4.476845 1.696213 11.377710    # Cl
61 2 6.037758 6.699319 2.162081    # Cl
62 2 1.560960 10.036113 5.414552    # Cl
63 2 11.416117 6.458776 3.886363    # Cl
64 2 7.122608 10.680473 11.017028    # Cl


