ITEM: TIMESTEP
0
ITEM: NUMBER OF ATOMS
32
ITEM: BOX BOUNDS pp pp pp
0.0000000000000000e+00 9.2745695000000001e+00
0.0000000000000000e+00 9.4047590000000003e+00
0.0000000000000000e+00 9.3272680000000001e+00
ITEM: ATOMS id type c_myForce[1] c_myForce[2] c_myForce[3]
6 1 -0.55223 -0.0974645 -0.429049
12 1 0.117646 0.922293 -0.149667
19 1 6.28375 -3.55132 -6.50562
20 1 -2.12652 0.75952 -0.640485
23 1 -6.66286 4.08475 7.62541
9 1 1.22988 -5.29285 0.266969
25 1 1.47167 -1.45356 -1.73465
31 1 1.62659 -1.37309 -0.0958122
2 1 -1.83801 -0.92899 0.00186448
4 1 -0.199452 0.0171188 0.030193
26 1 0.730706 0.587545 0.166391
30 1 0.0904952 0.14774 0.275437
1 1 0.973234 0.222422 -1.40254
10 1 -0.504667 -0.0169351 0.278954
15 1 0.0456779 -0.43004 -0.235455
24 1 -0.389759 0.680988 -0.709169
27 1 1.73518 0.373075 0.614734
11 1 -0.0293664 -0.173119 0.128583
21 1 -0.870751 0.519156 1.10494
22 1 -0.155634 -0.271736 -0.407017
32 1 -0.0155533 -0.0302011 0.0527396
7 1 0.101612 0.364029 -0.547106
17 1 -0.51232 -0.416253 -0.0735417
8 1 1.62297 0.164371 0.178515
13 1 0.512671 -1.10093 0.890616
28 1 -0.730139 0.855659 -2.66293
29 1 -1.49138 0.456734 -0.114715
3 1 -0.98789 5.39054 -0.164972
5 1 0.0572585 -0.00780162 0.442002
14 1 0.728565 -1.55363 0.956464
16 1 0.044919 -0.0713895 0.0527662
18 1 -0.306285 1.22337 2.80615
ITEM: TIMESTEP
100
ITEM: NUMBER OF ATOMS
32
ITEM: BOX BOUNDS pp pp pp
0.0000000000000000e+00 9.2745695000000001e+00
0.0000000000000000e+00 9.4047590000000003e+00
0.0000000000000000e+00 9.3272680000000001e+00
ITEM: ATOMS id type c_myForce[1] c_myForce[2] c_myForce[3]
6 1 -0.62446 -0.0786518 0.302447
12 1 0.0588885 -0.194761 -0.435899
19 1 -1.37189 1.54464 0.982717
20 1 0.042148 -0.194397 -0.0705388
23 1 0.229829 0.117768 -0.553595
9 1 1.11306 0.637979 0.759553
25 1 0.217797 0.164126 0.478955
31 1 -0.603754 0.767965 -0.513737
2 1 0.418747 0.443729 -0.127445
4 1 0.537399 -0.11763 -0.0555325
26 1 0.791406 -0.286971 0.864892
30 1 0.354131 0.266596 -0.721083
1 1 -0.0620643 0.327123 -0.178433
10 1 -0.0153623 0.482783 -0.886823
15 1 -0.0488374 -0.249974 -0.0708303
24 1 -0.0477218 -1.40088 1.01588
27 1 -0.566201 -0.758493 0.0298552
11 1 -0.0949656 0.424658 0.873434
21 1 -0.271846 -0.0663404 -0.242586
22 1 -0.0890591 -1.03683 -0.0100924
32 1 -0.766907 -0.901989 -0.602962
7 1 0.0081368 0.0378725 -0.18999
17 1 0.0555113 0.25677 0.0672977
8 1 0.265947 0.470659 -0.415458
13 1 -0.0698465 0.364358 -0.679299
28 1 0.619114 0.270347 0.285339
29 1 -0.13742 -0.358233 0.0314492
3 1 0.281928 -0.642552 -0.0924027
5 1 -0.0646536 -0.0783058 -0.0295477
14 1 0.314924 0.127842 -0.097535
16 1 -0.29365 -0.0491235 0.283334
18 1 -0.180327 -0.290084 -0.00136246
ITEM: TIMESTEP
200
ITEM: NUMBER OF ATOMS
32
ITEM: BOX BOUNDS pp pp pp
0.0000000000000000e+00 9.2745695000000001e+00
0.0000000000000000e+00 9.4047590000000003e+00
0.0000000000000000e+00 9.3272680000000001e+00
ITEM: ATOMS id type c_myForce[1] c_myForce[2] c_myForce[3]
6 1 0.236643 0.438888 0.117094
12 1 -0.282263 -0.327093 -0.307529
19 1 -0.0221994 0.0424841 -0.277883
20 1 0.690616 -0.611359 0.53521
23 1 0.345184 0.0841552 -0.818946
9 1 -0.0774576 1.19409 -0.537105
25 1 -1.21153 1.54403 -0.29441
31 1 -0.275667 -0.717882 1.14337
2 1 0.18223 0.360833 0.0969409
4 1 -0.0862782 0.13376 0.103025
26 1 -1.58589 0.108452 -0.902305
30 1 -0.15613 0.164962 -0.602791
1 1 0.122925 -0.12563 0.225672
10 1 0.348867 0.325748 0.388542
15 1 -0.102557 0.0406655 -0.280406
24 1 0.694316 0.0453002 -0.27368
27 1 0.0117713 -0.888476 0.326614
11 1 0.0811928 -0.00913292 0.363671
21 1 0.390921 -0.209526 0.15037
22 1 -0.00649893 -0.0104756 -0.276668
32 1 -0.532817 2.16625 -0.304062
7 1 0.331251 0.0798618 -0.522345
17 1 0.200203 0.342206 0.151028
8 1 0.479317 -1.69637 0.666511
13 1 -0.192529 0.464766 -0.531697
28 1 0.519682 -0.960415 1.07499
29 1 0.496865 -0.121286 0.477943
3 1 -0.507741 -1.17817 -0.0643714
5 1 -0.0890708 -0.617021 0.783057
14 1 -0.117297 0.344919 -0.557841
16 1 0.198317 -0.296178 -0.0526081
18 1 -0.0843814 -0.112368 0.000610713
ITEM: TIMESTEP
300
ITEM: NUMBER OF ATOMS
32
ITEM: BOX BOUNDS pp pp pp
0.0000000000000000e+00 9.2745695000000001e+00
0.0000000000000000e+00 9.4047590000000003e+00
0.0000000000000000e+00 9.3272680000000001e+00
ITEM: ATOMS id type c_myForce[1] c_myForce[2] c_myForce[3]
6 1 0.331242 -0.706137 -0.632796
12 1 0.105961 0.385602 0.254738
19 1 -0.00307962 -0.930763 -1.01097
20 1 0.383728 0.880886 0.307633
23 1 0.0117968 0.301598 0.265884
9 1 0.0233786 -0.369276 0.742791
25 1 -0.304761 -2.53904 0.0154854
31 1 -0.0763962 -0.0119439 0.106237
2 1 -0.406103 -0.866127 0.112852
4 1 -0.440677 0.12478 0.0342093
26 1 0.767478 0.430191 0.157596
30 1 0.778181 0.0596571 0.336301
1 1 -0.626104 0.659491 -0.412266
10 1 1.07818 -0.277028 1.36506
15 1 0.144582 -0.14069 -0.680771
24 1 -0.792842 0.210912 0.0305528
27 1 -0.396182 1.82933 0.457081
11 1 0.377134 -1.4077 -2.98117
21 1 0.667257 -0.198654 0.494234
22 1 0.0436864 1.23515 2.53117
32 1 0.500087 -0.410881 0.461341
7 1 -0.357146 -0.399284 0.0189291
17 1 -0.00438508 0.00371163 -0.0956148
8 1 -1.98215 0.783461 -0.189224
13 1 0.455185 -0.304926 0.0835056
28 1 -0.713913 0.0326674 -0.756579
29 1 -0.106463 1.44272 -0.525463
3 1 0.0202914 0.331151 -0.422578
5 1 -0.457015 -0.245845 -0.449273
14 1 0.39213 0.124308 1.04364
16 1 0.775816 -0.333625 -0.202819
18 1 -0.188894 0.306306 -0.459717
ITEM: TIMESTEP
400
ITEM: NUMBER OF ATOMS
32
ITEM: BOX BOUNDS pp pp pp
0.0000000000000000e+00 9.2745695000000001e+00
0.0000000000000000e+00 9.4047590000000003e+00
0.0000000000000000e+00 9.3272680000000001e+00
ITEM: ATOMS id type c_myForce[1] c_myForce[2] c_myForce[3]
6 1 -0.359259 -0.194124 0.0209111
12 1 0.228166 -0.249711 -0.365564
19 1 0.372708 0.55563 -0.659223
20 1 0.067363 -0.295263 -0.191517
23 1 0.277243 -0.69718 0.132313
9 1 0.0246127 -0.0465201 0.0607728
25 1 -0.283948 0.259399 0.00086529
31 1 0.0996552 0.191629 -0.129434
2 1 0.145467 0.427436 0.0407245
4 1 -0.00625905 -0.334943 -0.335194
26 1 0.22953 -0.408555 0.163858
30 1 -0.750133 -0.0333063 0.702795
1 1 -0.0808732 -0.345067 0.6169
10 1 -0.250099 0.0422396 0.128002
15 1 -0.633673 -0.0141691 1.09662
24 1 -0.223401 0.432124 0.0606737
27 1 0.60118 -1.17249 -0.641874
11 1 -0.0588845 0.147145 0.225225
21 1 0.246113 0.663117 -0.111487
22 1 0.205007 -0.108212 0.11465
32 1 -0.174508 -0.0208504 0.203787
7 1 0.0373271 -0.222281 0.379381
17 1 0.237878 -0.312928 -0.304651
8 1 0.525569 -0.233779 0.302147
13 1 -0.787851 -0.0958443 0.227646
28 1 -0.962288 0.524372 0.0433323
29 1 0.262565 -0.218184 -0.428612
3 1 -0.46892 1.79377 0.325391
5 1 0.524934 0.646956 -0.691798
14 1 0.82673 -0.61287 -1.29128
16 1 -0.500707 1.18744 0.989888
18 1 0.628752 -1.25499 -0.685253
