ITEM: TIMESTEP
0
ITEM: NUMBER OF ATOMS
192
ITEM: BOX BOUNDS xy xz yz pp pp pp
0.0000000000000000e+00 1.2444699999999999e+01 0.0000000000000000e+00
0.0000000000000000e+00 1.2444699999999999e+01 0.0000000000000000e+00
0.0000000000000000e+00 1.2444699999999999e+01 0.0000000000000000e+00
ITEM: ATOMS id type x y z
1 1 11.83 2.56 2.18
2 1 5.36 6 1.81
3 1 12.17 7.34 2.71
4 1 3.38 4.28 4.84
5 1 4.54 11.73 11.9
6 1 7.34 0.18 2.18
7 1 5.73 9.9 10.31
8 1 5.32 11.19 1.83
9 1 9.39 11.14 1.1
10 1 12.06 0.64 8.92
11 1 5.01 7.72 11.74
12 1 3.64 3.19 1.08
13 1 11.88 10.9 4.7
14 1 3.88 8.05 2.51
15 1 9.82 9.16 10.18
16 1 11 5.31 5.17
17 1 0.97 4.12 0.84
18 1 1.24 5.99 4.76
19 1 10.1 9.09 3.32
20 1 8.39 5.72 10.39
21 1 8.06 4.72 1.3
22 1 3.23 3.34 8.26
23 1 5.02 6.21 7.29
24 1 3.94 10.55 3.95
25 1 6.25 4.56 4.21
26 1 12.18 2.35 11.11
27 1 6.76 8.57 4.07
28 1 5.87 5.84 9.79
29 1 2.18 6.91 6.99
30 1 10.89 7.69 6.78
31 1 8.03 4.28 6.57
32 1 5.29 1.92 11.56
33 1 1.53 12.16 3.45
34 1 2.04 5.49 9.71
35 1 6.66 9.05 1.21
36 1 11.75 6.18 11.01
37 1 6.11 3.07 7.96
38 1 8.22 1.38 9.43
39 1 1.31 2.02 7.09
40 1 9.48 2.11 5.92
41 1 9.33 3.34 10.97
42 1 1.31 8.49 0.81
43 1 11.25 3.48 7.51
44 1 11.7 0.33 0.6
45 1 7.63 2.04 0.28
46 1 8.86 9.52 7.4
47 1 2.01 11.54 6.89
48 1 8.02 11.27 4.66
49 1 5.82 9.18 7.71
50 1 8.11 11.19 11.22
51 1 5.94 0.84 5.91
52 1 1.88 11.66 0.64
53 1 4.66 11.28 6.73
54 1 10.32 6.26 0.89
55 1 2.01 11.07 10.33
56 1 5.36 2.06 3.14
57 1 8.56 7.59 12.17
58 1 10.51 5.81 8.66
59 1 2.37 6.23 12.1
60 1 0.3 8.77 10.05
61 1 9.47 12.13 7.57
62 1 1.41 2.32 4.17
63 1 9.69 3.69 3.56
64 1 0.75 9.22 7.39
65 2 11.09 2.87 2.74
66 2 5.51 5.51 2.6
67 2 0.24 6.8 3.29
68 2 4.28 4.19 4.46
69 2 3.63 11.56 11.76
70 2 6.53 12.07 1.99
71 2 5.37 9.14 10.85
72 2 5.74 10.31 1.64
73 2 8.71 11.07 0.41
74 2 0.27 1.04 8.27
75 2 5.46 7.08 11.15
76 2 3.84 4.17 1.06
77 2 11.55 10.19 4.15
78 2 3 8.17 2.14
79 2 9.53 10.04 10.56
80 2 11.18 4.84 6.05
81 2 0.68 3.76 12.44
82 2 0.43 5.51 4.88
83 2 9.51 9.48 3.94
84 2 9.08 5.89 9.68
85 2 7.92 3.83 0.8
86 2 4.23 3.22 8.21
87 2 5.27 5.9 8.19
88 2 4.44 10.9 3.14
89 2 6.93 4.56 4.89
90 2 11.88 1.61 11.75
91 2 6.79 8.54 3.09
92 2 5.62 4.99 10.13
93 2 3.09 6.66 6.98
94 2 11.73 8.22 6.86
95 2 8.4 3.45 6.18
96 2 4.64 2.37 12.16
97 2 0.74 11.69 3.86
98 2 1.1 5.3 9.72
99 2 7.54 9.11 0.83
100 2 11.36 6.2 11.9
101 2 5.85 2.21 7.53
102 2 8.81 2.01 9.89
103 2 2.17 2.43 7.46
104 2 10.1 2.53 6.55
105 2 9.07 4.29 10.91
106 2 0.64 8.13 1.45
107 2 11.12 4.2 8.14
108 2 11.03 12.03 0.58
109 2 6.83 1.84 12.19
110 2 9.13 10.45 7.25
111 2 1.76 12.44 6.8
112 2 7.37 11.88 5.08
113 2 5.59 8.29 7.44
114 2 8.14 12.12 10.86
115 2 5.48 0.06 6.32
116 2 0.99 11.99 0.41
117 2 4.54 10.95 5.79
118 2 10.94 6.29 1.65
119 2 2.52 10.55 9.76
120 2 4.74 2.41 2.42
121 2 8.84 8.27 11.56
122 2 10.89 6.06 9.58
123 2 2.15 5.99 11.18
124 2 0.49 9.06 9.13
125 2 8.69 12.34 8.15
126 2 1.76 1.44 4.07
127 2 10.05 4.44 4.1
128 2 1.44 8.49 7.32
129 2 12.25 3.32 1.68
130 2 6.27 6.22 1.56
131 2 11.5 7.85 3.14
132 2 2.96 3.44 4.61
133 2 5.04 11.17 11.3
134 2 7.6 12.39 3.03
135 2 5.94 9.68 9.37
136 2 4.93 11.46 0.96
137 2 8.92 11.68 1.69
138 2 12.07 1.36 9.54
139 2 4.17 7.28 11.8
140 2 2.67 3.09 1.05
141 2 11.89 10.59 5.56
142 2 4.27 7.23 2.16
143 2 10.8 9.22 10.18
144 2 10.68 6.2 5.44
145 2 1.51 4.9 0.53
146 2 1.94 5.36 4.61
147 2 10.02 9.64 2.47
148 2 8.41 6.43 11.04
149 2 8.58 4.29 2.01
150 2 3.12 4.28 8.41
151 2 5.12 5.54 6.6
152 2 3.97 9.58 3.89
153 2 6.17 3.63 3.9
154 2 11.4 2.92 10.99
155 2 5.96 8.02 4.26
156 2 6.81 5.9 9.83
157 2 1.83 6.59 6.16
158 2 10.19 8.36 6.88
159 2 8.74 4.67 7.12
160 2 4.84 1.08 11.38
161 2 2.38 11.71 3.7
162 2 2.02 6.1 8.92
163 2 6.05 8.48 0.61
164 2 12.12 7.05 10.81
165 2 6.81 3.46 7.31
166 2 7.52 1.99 9.1
167 2 1.25 2.26 6.18
168 2 9.31 1.19 6.35
169 2 8.84 2.9 11.69
170 2 1.39 9.44 0.85
171 2 12.13 3.22 7.5
172 2 11.38 0.95 1.34
173 2 7.43 1.82 1.24
174 2 9.15 9.43 8.28
175 2 2.97 11.66 6.88
176 2 7.5 10.43 4.47
177 2 6.69 9.4 7.47
178 2 7.29 10.77 10.93
179 2 5.45 1.07 5.12
180 2 1.92 11.57 1.62
181 2 5.05 10.55 7.26
182 2 9.73 5.52 1.11
183 2 1.73 11.85 9.82
184 2 6.02 1.57 2.67
185 2 9.34 7.2 0.21
186 2 10.71 6.56 7.97
187 2 1.86 7.03 12.37
188 2 1.08 9.16 10.59
189 2 10.19 12.39 8.15
190 2 0.92 2.56 3.28
191 2 9.34 3.01 4.17
192 2 1.11 10.09 7.21
ITEM: TIMESTEP
100
ITEM: NUMBER OF ATOMS
192
ITEM: BOX BOUNDS xy xz yz pp pp pp
0.0000000000000000e+00 1.2444699999999999e+01 0.0000000000000000e+00
0.0000000000000000e+00 1.2444699999999999e+01 0.0000000000000000e+00
0.0000000000000000e+00 1.2444699999999999e+01 0.0000000000000000e+00
ITEM: ATOMS id type x y z
1 1 11.834 2.26219 2.43079
2 1 5.43987 5.92649 1.82658
3 1 12.2363 7.31643 2.68168
4 1 3.08566 4.38394 4.76304
5 1 4.56659 11.924 11.5967
6 1 7.58005 0.253275 2.63559
7 1 5.72843 9.93351 10.3151
8 1 5.37894 11.2124 1.69831
9 1 9.44696 10.894 1.0657
10 1 11.8494 0.379947 8.95736
11 1 5.17116 7.67384 11.7372
12 1 3.55809 3.24739 1.30974
13 1 11.9439 10.7737 4.75568
14 1 3.45149 8 2.85989
15 1 9.85 9.4246 10.2924
16 1 11.1162 5.21439 5.19402
17 1 0.796284 3.93852 0.544692
18 1 1.17212 6.11491 4.61924
19 1 10.2177 9.24057 3.2103
20 1 8.32469 5.74257 10.303
21 1 8.22095 4.51961 1.49903
22 1 3.23313 3.4241 8.60907
23 1 5.12318 6.31616 7.02275
24 1 3.85308 10.6073 3.99562
25 1 6.10208 4.72876 4.41609
26 1 11.9776 2.34936 11.1534
27 1 6.80322 8.63781 4.06835
28 1 5.63857 5.75793 9.98577
29 1 2.46054 6.93093 7.07367
30 1 10.6285 7.74402 6.81868
31 1 7.93444 4.36959 6.65625
32 1 5.2868 2.10175 11.8361
33 1 1.77532 12.045 3.68983
34 1 1.91369 5.83658 9.4453
35 1 6.876 8.96673 1.18642
36 1 11.699 6.40854 10.8893
37 1 5.94437 2.97592 8.04734
38 1 8.23522 1.25207 9.29158
39 1 1.43237 1.99722 7.01142
40 1 9.40866 2.17974 5.89152
41 1 9.39953 3.07289 10.7921
42 1 1.51042 8.66651 0.769747
43 1 11.1797 3.45436 7.28891
44 1 11.9008 0.353551 0.430392
45 1 7.81356 2.01345 0.0510077
46 1 8.67858 9.55351 7.47869
47 1 1.92495 11.6675 6.73059
48 1 7.68064 11.3059 4.81443
49 1 5.94353 8.86284 7.60151
50 1 8.00312 11.4239 11.0728
51 1 5.81892 1.29066 5.572
52 1 1.86858 11.2963 1.00866
53 1 4.6115 11.0618 6.42304
54 1 10.5187 6.20819 1.03785
55 1 2.02804 11.0415 10.3286
56 1 5.38492 2.28507 3.1367
57 1 8.71051 7.79812 12.0884
58 1 10.5952 5.63449 8.5867
59 1 2.47759 6.34427 12.3244
60 1 0.269791 8.83245 10.2113
61 1 9.3734 12.28 7.43787
62 1 1.69966 2.09536 4.42968
63 1 9.68073 3.53788 3.45313
64 1 0.7093 9.01944 7.15737
65 2 10.9979 2.72687 2.65156
66 2 6.08832 5.67889 2.45411
67 2 0.342164 6.79284 3.31343
68 2 4.03164 4.58029 4.58952
69 2 3.65012 12.0644 11.5248
70 2 6.71542 12.2457 2.30066
71 2 5.49586 9.13341 10.8079
72 2 5.93634 10.4604 1.57201
73 2 8.91785 10.6907 0.264085
74 2 0.081875 0.64095 8.24641
75 2 5.06878 6.97431 10.9695
76 2 3.77889 4.23069 1.47123
77 2 11.2178 10.3774 4.26702
78 2 2.97302 8.0568 2.00295
79 2 9.46379 10.3512 10.4894
80 2 11.1888 4.43709 5.89988
81 2 0.511623 3.46176 12.1937
82 2 0.319472 5.63621 4.72728
83 2 9.59194 8.77082 3.76938
84 2 9.13159 5.78553 9.71724
85 2 8.18637 3.6255 1.01527
86 2 4.16692 3.65912 8.42328
87 2 5.22958 6.0052 7.9691
88 2 4.42136 10.9959 3.24083
89 2 6.82897 4.52176 5.016
90 2 11.9402 1.55422 11.6373
91 2 6.77914 8.65749 3.08625
92 2 5.26893 4.87561 10.0555
93 2 3.32989 6.54727 6.95848
94 2 11.4465 8.34331 6.96007
95 2 8.46299 3.53277 6.50201
96 2 4.59027 2.47748 12.4313
97 2 0.993487 11.5779 4.00229
98 2 1.01842 5.81696 9.79216
99 2 7.59238 8.55955 0.68931
100 2 11.3607 6.11641 11.7331
101 2 5.91062 2.62769 7.13351
102 2 8.6865 1.95987 9.80634
103 2 2.22858 2.43507 7.46005
104 2 10.0794 2.34714 6.57273
105 2 9.08862 3.93195 10.5451
106 2 0.894221 8.31181 1.45054
107 2 11.1018 4.217 7.92839
108 2 11.0973 12.2391 0.577718
109 2 6.78798 1.95471 12.2716
110 2 8.76334 10.5705 7.27737
111 2 1.74207 0.0836749 7.11946
112 2 7.41934 11.8495 5.57086
113 2 5.71572 7.98456 7.3006
114 2 7.98765 12.1818 10.3853
115 2 5.31006 0.555809 5.83273
116 2 1.10297 11.6274 0.523184
117 2 4.39535 10.8583 5.45575
118 2 11.2843 6.45766 1.62374
119 2 2.3721 10.8913 9.4883
120 2 4.65027 2.62616 2.56578
121 2 9.22004 8.49932 11.6119
122 2 11.0318 6.07817 9.38082
123 2 2.41586 6.31611 11.365
124 2 0.556354 8.69877 9.31773
125 2 9.16376 0.275201 8.32525
126 2 1.72603 1.17 4.06864
127 2 10.1319 4.38493 3.81221
128 2 1.51534 8.32319 7.02813
129 2 0.0572991 2.87468 2.01276
130 2 5.92084 6.02771 0.978877
131 2 11.8084 7.98452 3.19556
132 2 2.90624 3.52323 4.31549
133 2 4.79328 11.214 10.9
134 2 7.7076 12.3361 3.53278
135 2 5.60885 9.66693 9.36693
136 2 5.0416 11.4697 0.822192
137 2 8.81678 11.4244 1.51726
138 2 12.0124 0.955872 9.68947
139 2 4.38497 7.45793 12.2157
140 2 2.60921 3.31454 1.11803
141 2 12.349 10.0526 5.17926
142 2 4.20616 7.37514 2.63494
143 2 10.8426 9.37719 10.2169
144 2 10.8494 6.00618 5.74574
145 2 1.05446 4.84794 0.217543
146 2 1.8876 5.39386 4.5404
147 2 9.82892 9.73434 2.42626
148 2 8.37222 6.51833 11.006
149 2 8.73176 4.08915 2.21337
150 2 2.83444 4.20464 9.05056
151 2 5.52126 5.70095 6.39239
152 2 3.84192 9.62648 3.8115
153 2 5.98209 3.92251 3.86652
154 2 11.0883 2.6628 10.9794
155 2 5.96597 8.24045 4.34697
156 2 6.62537 5.59162 10.1477
157 2 1.95352 6.46559 6.34865
158 2 9.86119 8.32996 6.98781
159 2 8.46189 5.13822 6.98476
160 2 5.02068 1.16433 11.5623
161 2 2.60267 11.6197 3.96241
162 2 1.91835 6.17337 8.53663
163 2 6.0657 8.67393 0.63419
164 2 12.2117 7.19036 11.091
165 2 6.52132 3.75814 8.11194
166 2 7.39637 1.63072 8.99063
167 2 1.69275 1.93959 6.05442
168 2 9.08612 1.25458 6.21061
169 2 8.77542 2.66872 11.4874
170 2 1.67 9.59478 0.968662
171 2 12.0043 3.04272 7.36856
172 2 11.987 1.04146 1.11089
173 2 8.1808 1.08708 0.187861
174 2 8.9801 9.50276 8.36585
175 2 2.96322 11.5939 6.7418
176 2 7.19412 10.4227 4.86958
177 2 6.86339 8.99874 7.42127
178 2 7.22275 10.8449 10.8321
179 2 5.46024 1.59038 4.72067
180 2 1.71697 11.471 1.96888
181 2 5.03325 10.2724 6.78517
182 2 10.1403 5.35381 1.21356
183 2 1.25981 11.6446 10.2139
184 2 5.90953 1.58414 2.73299
185 2 9.252 7.15027 0.185997
186 2 10.7128 6.33236 7.97873
187 2 2.05897 7.22106 0.172267
188 2 0.89146 9.63579 10.3841
189 2 10.2945 12.1007 7.52417
190 2 0.683961 2.28382 4.22037
191 2 9.34048 3.09174 4.25459
192 2 1.05833 9.93273 7.07232
ITEM: TIMESTEP
200
ITEM: NUMBER OF ATOMS
192
ITEM: BOX BOUNDS xy xz yz pp pp pp
0.0000000000000000e+00 1.2444699999999999e+01 0.0000000000000000e+00
0.0000000000000000e+00 1.2444699999999999e+01 0.0000000000000000e+00
0.0000000000000000e+00 1.2444699999999999e+01 0.0000000000000000e+00
ITEM: ATOMS id type x y z
1 1 12.1386 2.05744 2.63841
2 1 5.3715 5.76348 1.96415
3 1 12.4224 7.62203 2.53316
4 1 3.02025 4.48681 4.63199
5 1 4.19409 12.1356 11.4302
6 1 7.81694 0.237015 2.69901
7 1 5.8426 9.90703 10.171
8 1 5.54961 11.2765 1.56188
9 1 9.52037 11.0567 1.28757
10 1 11.959 0.0994575 8.98232
11 1 5.07103 7.56944 11.8969
12 1 3.51313 3.52622 1.43491
13 1 12.1323 10.6571 4.83318
14 1 3.23679 7.946 3.15403
15 1 9.84321 9.72906 10.1759
16 1 11.1209 5.22057 5.31026
17 1 0.898588 3.73706 0.317587
18 1 1.10047 6.30856 4.63189
19 1 10.2073 9.24303 3.13252
20 1 8.22881 5.66838 10.2063
21 1 8.27283 4.40928 1.57156
22 1 3.05443 3.33512 8.93873
23 1 5.27861 6.3824 6.91915
24 1 4.02847 10.2942 3.59669
25 1 5.92702 4.83454 4.62232
26 1 11.9137 2.33166 10.9047
27 1 6.95519 8.78039 3.97689
28 1 5.41488 5.42348 9.84696
29 1 2.57712 7.06534 6.83393
30 1 10.5484 7.66339 6.72087
31 1 7.79223 4.48298 6.67067
32 1 5.27725 2.37963 12.057
33 1 1.74179 11.8901 3.83228
34 1 1.7886 5.98516 9.34274
35 1 6.75313 8.77894 1.26846
36 1 11.8828 6.49977 10.8318
37 1 5.85125 2.73886 8.05544
38 1 7.84592 1.189 9.11751
39 1 1.32486 1.94825 7.39439
40 1 9.10014 2.1822 5.83813
41 1 9.40572 3.14601 10.4865
42 1 1.71983 8.58155 0.953359
43 1 11.6795 3.35716 7.12445
44 1 11.9747 0.125862 0.581188
45 1 7.90949 1.92473 12.4347
46 1 8.64189 9.50973 7.77554
47 1 1.85185 11.5318 7.08753
48 1 7.38919 11.2766 5.16797
49 1 6.06736 8.95794 7.49923
50 1 8.06676 11.5505 10.7805
51 1 5.66822 1.66357 5.7881
52 1 1.77412 11.2267 1.29516
53 1 4.67183 10.9223 6.26103
54 1 10.6427 6.08438 0.872326
55 1 1.89238 11.2724 10.0967
56 1 5.55578 2.5631 3.08584
57 1 9.03657 7.87137 12.0573
58 1 10.4519 5.70437 8.66139
59 1 2.77725 6.44524 0.0103941
60 1 0.0213743 8.96717 10.1015
61 1 9.44202 12.1811 7.11429
62 1 1.76519 2.08627 4.45796
63 1 9.77017 3.39007 3.6685
64 1 0.689027 9.04187 7.06141
65 2 11.3766 2.51075 3.01844
66 2 5.87513 5.55489 2.75392
67 2 0.348104 7.12055 3.3064
68 2 3.93781 4.4609 4.39711
69 2 3.34825 11.757 11.1993
70 2 6.88927 12.3371 2.31045
71 2 5.35814 9.3706 10.7611
72 2 5.84428 10.4151 1.23402
73 2 8.93944 10.9838 0.531102
74 2 0.239956 0.399751 8.33502
75 2 5.2884 6.99825 11.1021
76 2 3.7821 4.49538 1.52948
77 2 11.4716 10.1942 4.33334
78 2 2.55139 8.10916 2.44736
79 2 9.18151 10.5066 10.3068
80 2 11.4056 4.70112 6.05946
81 2 0.604349 3.27603 11.9265
82 2 0.298237 5.76621 4.80124
83 2 9.27379 9.02993 3.45732
84 2 8.9628 5.76739 9.5822
85 2 8.21704 3.52339 1.07133
86 2 4.00225 3.23713 8.76648
87 2 5.27685 5.72924 7.68029
88 2 4.60416 10.7196 2.92799
89 2 6.71621 4.83989 5.17763
90 2 11.9977 1.53089 11.401
91 2 6.72536 8.85271 3.04269
92 2 5.09775 4.73086 10.4581
93 2 3.48972 6.77688 6.81913
94 2 11.4362 8.15223 6.81117
95 2 8.27444 3.65945 6.4145
96 2 4.64855 2.91247 0.0885472
97 2 0.930264 11.3543 3.92536
98 2 0.836749 5.86723 9.58772
99 2 7.53779 8.53633 0.761557
100 2 11.5533 6.44207 11.7179
101 2 5.63569 2.08942 7.39096
102 2 8.3795 1.94908 9.39046
103 2 2.00072 2.4342 7.89086
104 2 10.0134 2.4098 6.08155
105 2 8.92507 3.94029 10.38
106 2 0.936919 8.3062 1.48816
107 2 11.305 3.80148 7.92146
108 2 11.1266 12.0495 0.582989
109 2 6.98456 2.01727 12.2921
110 2 8.8021 10.4819 7.4835
111 2 1.86656 12.4016 6.68068
112 2 6.60782 11.3545 5.74348
113 2 5.74081 8.05998 7.25932
114 2 7.91264 12.3807 10.1647
115 2 5.48546 0.748281 5.66457
116 2 1.12707 11.8257 0.896224
117 2 4.5052 10.6559 5.36821
118 2 11.3445 6.13802 1.52615
119 2 2.23538 11.7031 9.30284
120 2 4.76186 2.57624 2.52598
121 2 9.39719 8.56735 11.4853
122 2 10.941 5.81823 9.52622
123 2 2.40472 6.20269 11.5987
124 2 0.273288 9.45019 9.33269
125 2 8.73875 0.0649598 7.70826
126 2 1.9499 1.11905 4.2499
127 2 10.2525 4.06722 4.22931
128 2 1.37476 8.39449 6.87927
129 2 12.3295 2.52464 1.78512
130 2 5.97294 5.65258 1.2437
131 2 11.6971 8.13737 2.85283
132 2 2.63813 3.54525 4.49205
133 2 4.83371 11.5558 10.881
134 2 7.77906 12.3085 3.67385
135 2 5.68469 9.60768 9.24992
136 2 4.91942 11.6597 0.885367
137 2 9.01037 11.6563 1.87447
138 2 11.8877 0.807991 9.63302
139 2 4.13179 7.28046 12.0604
140 2 2.5876 3.60348 1.22097
141 2 12.4148 9.99532 5.49277
142 2 3.80566 7.26856 2.7394
143 2 10.7929 9.99912 10.2825
144 2 10.7951 6.07482 5.67001
145 2 0.678377 4.66954 0.173178
146 2 1.82051 5.74604 4.30125
147 2 10.1678 9.80084 2.3055
148 2 8.33243 6.2721 10.9279
149 2 8.68463 4.00507 2.36227
150 2 2.8097 4.29379 9.01207
151 2 5.22149 5.79202 6.13533
152 2 4.07908 9.33456 3.41939
153 2 5.84789 3.94079 4.25274
154 2 10.9514 2.58377 10.964
155 2 6.30411 8.25375 4.40075
156 2 6.38588 5.36642 9.9989
157 2 2.18711 6.50269 6.1043
158 2 9.83612 8.27802 6.98704
159 2 8.43003 5.19906 6.81392
160 2 4.91314 1.48815 11.8908
161 2 2.50164 11.3189 4.02792
162 2 1.93766 6.51511 8.56917
163 2 6.09553 8.17271 0.760374
164 2 11.9397 7.43993 10.6248
165 2 6.27639 3.48604 7.60322
166 2 6.95562 1.52968 9.01671
167 2 1.55653 2.23453 6.46973
168 2 9.09595 1.16681 5.79964
169 2 8.93823 2.65821 11.215
170 2 1.71176 9.58643 1.09899
171 2 12.4266 2.77105 7.34592
172 2 12.019 0.587897 1.42416
173 2 7.98182 1.09879 0.460661
174 2 9.0243 9.45457 8.65721
175 2 2.77968 11.1124 6.92029
176 2 7.33936 10.2995 4.85139
177 2 7.03304 8.8325 7.42959
178 2 7.33134 10.929 10.506
179 2 5.68867 1.99534 4.88462
180 2 1.89333 11.4993 2.22447
181 2 5.24289 10.2327 6.6619
182 2 9.8241 5.77692 1.2979
183 2 0.960614 11.492 10.0272
184 2 6.41441 2.23179 2.71345
185 2 9.7012 7.28108 0.0112368
186 2 10.7104 6.43304 8.14013
187 2 2.22387 7.23051 0.304423
188 2 0.79704 9.16046 10.6699
189 2 10.1805 12.2084 7.70114
190 2 1.16259 2.09853 3.59987
191 2 9.39337 2.81271 4.34923
192 2 1.18121 9.8364 7.08932
