ITEM: TIMESTEP
0
ITEM: NUMBER OF ATOMS
192
ITEM: BOX BOUNDS xy xz yz pp pp pp
0.0000000000000000e+00 1.2444699999999999e+01 0.0000000000000000e+00
0.0000000000000000e+00 1.2444699999999999e+01 0.0000000000000000e+00
0.0000000000000000e+00 1.2444699999999999e+01 0.0000000000000000e+00
ITEM: ATOMS id type x y z
1 1 11.83 2.56 2.18
2 1 5.36 6 1.81
3 1 12.17 7.34 2.71
4 1 3.38 4.28 4.84
5 1 4.54 11.73 11.9
6 1 7.34 0.18 2.18
7 1 5.73 9.9 10.31
8 1 5.32 11.19 1.83
9 1 9.39 11.14 1.1
10 1 12.06 0.64 8.92
11 1 5.01 7.72 11.74
12 1 3.64 3.19 1.08
13 1 11.88 10.9 4.7
14 1 3.88 8.05 2.51
15 1 9.82 9.16 10.18
16 1 11 5.31 5.17
17 1 0.97 4.12 0.84
18 1 1.24 5.99 4.76
19 1 10.1 9.09 3.32
20 1 8.39 5.72 10.39
21 1 8.06 4.72 1.3
22 1 3.23 3.34 8.26
23 1 5.02 6.21 7.29
24 1 3.94 10.55 3.95
25 1 6.25 4.56 4.21
26 1 12.18 2.35 11.11
27 1 6.76 8.57 4.07
28 1 5.87 5.84 9.79
29 1 2.18 6.91 6.99
30 1 10.89 7.69 6.78
31 1 8.03 4.28 6.57
32 1 5.29 1.92 11.56
33 1 1.53 12.16 3.45
34 1 2.04 5.49 9.71
35 1 6.66 9.05 1.21
36 1 11.75 6.18 11.01
37 1 6.11 3.07 7.96
38 1 8.22 1.38 9.43
39 1 1.31 2.02 7.09
40 1 9.48 2.11 5.92
41 1 9.33 3.34 10.97
42 1 1.31 8.49 0.81
43 1 11.25 3.48 7.51
44 1 11.7 0.33 0.6
45 1 7.63 2.04 0.28
46 1 8.86 9.52 7.4
47 1 2.01 11.54 6.89
48 1 8.02 11.27 4.66
49 1 5.82 9.18 7.71
50 1 8.11 11.19 11.22
51 1 5.94 0.84 5.91
52 1 1.88 11.66 0.64
53 1 4.66 11.28 6.73
54 1 10.32 6.26 0.89
55 1 2.01 11.07 10.33
56 1 5.36 2.06 3.14
57 1 8.56 7.59 12.17
58 1 10.51 5.81 8.66
59 1 2.37 6.23 12.1
60 1 0.3 8.77 10.05
61 1 9.47 12.13 7.57
62 1 1.41 2.32 4.17
63 1 9.69 3.69 3.56
64 1 0.75 9.22 7.39
65 2 11.09 2.87 2.74
66 2 5.51 5.51 2.6
67 2 0.24 6.8 3.29
68 2 4.28 4.19 4.46
69 2 3.63 11.56 11.76
70 2 6.53 12.07 1.99
71 2 5.37 9.14 10.85
72 2 5.74 10.31 1.64
73 2 8.71 11.07 0.41
74 2 0.27 1.04 8.27
75 2 5.46 7.08 11.15
76 2 3.84 4.17 1.06
77 2 11.55 10.19 4.15
78 2 3 8.17 2.14
79 2 9.53 10.04 10.56
80 2 11.18 4.84 6.05
81 2 0.68 3.76 12.44
82 2 0.43 5.51 4.88
83 2 9.51 9.48 3.94
84 2 9.08 5.89 9.68
85 2 7.92 3.83 0.8
86 2 4.23 3.22 8.21
87 2 5.27 5.9 8.19
88 2 4.44 10.9 3.14
89 2 6.93 4.56 4.89
90 2 11.88 1.61 11.75
91 2 6.79 8.54 3.09
92 2 5.62 4.99 10.13
93 2 3.09 6.66 6.98
94 2 11.73 8.22 6.86
95 2 8.4 3.45 6.18
96 2 4.64 2.37 12.16
97 2 0.74 11.69 3.86
98 2 1.1 5.3 9.72
99 2 7.54 9.11 0.83
100 2 11.36 6.2 11.9
101 2 5.85 2.21 7.53
102 2 8.81 2.01 9.89
103 2 2.17 2.43 7.46
104 2 10.1 2.53 6.55
105 2 9.07 4.29 10.91
106 2 0.64 8.13 1.45
107 2 11.12 4.2 8.14
108 2 11.03 12.03 0.58
109 2 6.83 1.84 12.19
110 2 9.13 10.45 7.25
111 2 1.76 12.44 6.8
112 2 7.37 11.88 5.08
113 2 5.59 8.29 7.44
114 2 8.14 12.12 10.86
115 2 5.48 0.06 6.32
116 2 0.99 11.99 0.41
117 2 4.54 10.95 5.79
118 2 10.94 6.29 1.65
119 2 2.52 10.55 9.76
120 2 4.74 2.41 2.42
121 2 8.84 8.27 11.56
122 2 10.89 6.06 9.58
123 2 2.15 5.99 11.18
124 2 0.49 9.06 9.13
125 2 8.69 12.34 8.15
126 2 1.76 1.44 4.07
127 2 10.05 4.44 4.1
128 2 1.44 8.49 7.32
129 2 12.25 3.32 1.68
130 2 6.27 6.22 1.56
131 2 11.5 7.85 3.14
132 2 2.96 3.44 4.61
133 2 5.04 11.17 11.3
134 2 7.6 12.39 3.03
135 2 5.94 9.68 9.37
136 2 4.93 11.46 0.96
137 2 8.92 11.68 1.69
138 2 12.07 1.36 9.54
139 2 4.17 7.28 11.8
140 2 2.67 3.09 1.05
141 2 11.89 10.59 5.56
142 2 4.27 7.23 2.16
143 2 10.8 9.22 10.18
144 2 10.68 6.2 5.44
145 2 1.51 4.9 0.53
146 2 1.94 5.36 4.61
147 2 10.02 9.64 2.47
148 2 8.41 6.43 11.04
149 2 8.58 4.29 2.01
150 2 3.12 4.28 8.41
151 2 5.12 5.54 6.6
152 2 3.97 9.58 3.89
153 2 6.17 3.63 3.9
154 2 11.4 2.92 10.99
155 2 5.96 8.02 4.26
156 2 6.81 5.9 9.83
157 2 1.83 6.59 6.16
158 2 10.19 8.36 6.88
159 2 8.74 4.67 7.12
160 2 4.84 1.08 11.38
161 2 2.38 11.71 3.7
162 2 2.02 6.1 8.92
163 2 6.05 8.48 0.61
164 2 12.12 7.05 10.81
165 2 6.81 3.46 7.31
166 2 7.52 1.99 9.1
167 2 1.25 2.26 6.18
168 2 9.31 1.19 6.35
169 2 8.84 2.9 11.69
170 2 1.39 9.44 0.85
171 2 12.13 3.22 7.5
172 2 11.38 0.95 1.34
173 2 7.43 1.82 1.24
174 2 9.15 9.43 8.28
175 2 2.97 11.66 6.88
176 2 7.5 10.43 4.47
177 2 6.69 9.4 7.47
178 2 7.29 10.77 10.93
179 2 5.45 1.07 5.12
180 2 1.92 11.57 1.62
181 2 5.05 10.55 7.26
182 2 9.73 5.52 1.11
183 2 1.73 11.85 9.82
184 2 6.02 1.57 2.67
185 2 9.34 7.2 0.21
186 2 10.71 6.56 7.97
187 2 1.86 7.03 12.37
188 2 1.08 9.16 10.59
189 2 10.19 12.39 8.15
190 2 0.92 2.56 3.28
191 2 9.34 3.01 4.17
192 2 1.11 10.09 7.21
ITEM: TIMESTEP
100
ITEM: NUMBER OF ATOMS
192
ITEM: BOX BOUNDS xy xz yz pp pp pp
0.0000000000000000e+00 1.2444699999999999e+01 0.0000000000000000e+00
0.0000000000000000e+00 1.2444699999999999e+01 0.0000000000000000e+00
0.0000000000000000e+00 1.2444699999999999e+01 0.0000000000000000e+00
ITEM: ATOMS id type x y z
1 1 11.8397 2.26158 2.42822
2 1 5.43781 5.92564 1.82494
3 1 12.2414 7.31725 2.68167
4 1 3.08673 4.38088 4.7582
5 1 4.56493 11.9236 11.595
6 1 7.58167 0.249548 2.63854
7 1 5.71982 9.93365 10.3156
8 1 5.37909 11.2154 1.69684
9 1 9.44699 10.8927 1.06255
10 1 11.8504 0.375569 8.96032
11 1 5.16475 7.67235 11.7381
12 1 3.55617 3.24946 1.31305
13 1 11.9417 10.7725 4.7555
14 1 3.45562 7.99677 2.85779
15 1 9.84844 9.42528 10.2933
16 1 11.1168 5.21533 5.1999
17 1 0.795864 3.93893 0.541852
18 1 1.16719 6.11166 4.61918
19 1 10.2206 9.24026 3.21192
20 1 8.32163 5.74167 10.3046
21 1 8.22175 4.51514 1.49829
22 1 3.23436 3.42597 8.60857
23 1 5.12335 6.31354 7.0242
24 1 3.85397 10.6061 3.99182
25 1 6.10156 4.73194 4.4167
26 1 11.9818 2.34897 11.1518
27 1 6.80371 8.6393 4.07254
28 1 5.63435 5.75351 9.98748
29 1 2.46031 6.92349 7.07361
30 1 10.6312 7.74542 6.82357
31 1 7.93128 4.37398 6.65544
32 1 5.29189 2.09822 11.8383
33 1 1.77377 12.0434 3.68594
34 1 1.92178 5.83678 9.44718
35 1 6.87337 8.96587 1.18321
36 1 11.7033 6.40704 10.892
37 1 5.93475 2.97719 8.05243
38 1 8.23271 1.24955 9.29113
39 1 1.43512 1.99477 7.00764
40 1 9.40627 2.1797 5.88991
41 1 9.3971 3.06726 10.7881
42 1 1.51059 8.66802 0.772429
43 1 11.1779 3.45275 7.28813
44 1 11.9039 0.355963 0.427819
45 1 7.81692 2.00883 0.0514595
46 1 8.67965 9.55277 7.48234
47 1 1.926 11.6656 6.73271
48 1 7.67976 11.3062 4.8193
49 1 5.93977 8.85699 7.59728
50 1 7.99797 11.4292 11.066
51 1 5.82167 1.29722 5.57113
52 1 1.86877 11.2977 1.00547
53 1 4.61311 11.0615 6.41848
54 1 10.5227 6.2102 1.03619
55 1 2.02072 11.0429 10.3278
56 1 5.3782 2.29039 3.14071
57 1 8.70969 7.79719 12.0872
58 1 10.6013 5.63233 8.59188
59 1 2.47459 6.34873 12.3286
60 1 0.27039 8.83603 10.2152
61 1 9.37445 12.2792 7.43557
62 1 1.69362 2.08986 4.42788
63 1 9.6858 3.54586 3.45102
64 1 0.713738 9.01628 7.15575
65 2 10.9909 2.7223 2.66847
66 2 6.09487 5.68321 2.45706
67 2 0.340519 6.79832 3.30357
68 2 4.00332 4.58069 4.56932
69 2 3.64795 12.0703 11.5357
70 2 6.73446 12.258 2.30805
71 2 5.5109 9.11411 10.8227
72 2 5.93483 10.4468 1.57734
73 2 8.91209 10.6813 0.288503
74 2 0.0896408 0.62367 8.25996
75 2 5.0656 6.9737 10.9765
76 2 3.79388 4.23129 1.48781
77 2 11.2161 10.3787 4.29402
78 2 2.96433 8.06855 2.01144
79 2 9.47996 10.3378 10.4826
80 2 11.2071 4.44193 5.91099
81 2 0.501091 3.46611 12.1833
82 2 0.333576 5.6455 4.72329
83 2 9.56989 8.73448 3.75381
84 2 9.13031 5.78485 9.70401
85 2 8.20063 3.62607 1.01832
86 2 4.15221 3.66383 8.42768
87 2 5.22801 6.01117 7.95493
88 2 4.41506 10.9895 3.23299
89 2 6.81842 4.5012 5.02907
90 2 11.9159 1.53547 11.6333
91 2 6.77668 8.64514 3.07097
92 2 5.25282 4.86785 10.0405
93 2 3.33637 6.55731 6.9642
94 2 11.4364 8.34658 6.94759
95 2 8.45755 3.53496 6.50629
96 2 4.57572 2.46285 0.00123115
97 2 0.976129 11.5821 4.00792
98 2 0.986821 5.83248 9.7712
99 2 7.60255 8.56941 0.694339
100 2 11.3536 6.12073 11.7275
101 2 5.90339 2.62 7.13097
102 2 8.6877 1.95246 9.80566
103 2 2.22918 2.43456 7.47797
104 2 10.0716 2.36417 6.57587
105 2 9.09794 3.9548 10.5459
106 2 0.895947 8.29985 1.44975
107 2 11.1183 4.1971 7.9238
108 2 11.1118 12.2199 0.564995
109 2 6.81081 1.96645 12.2529
110 2 8.77146 10.566 7.27642
111 2 1.7535 0.0786563 7.13199
112 2 7.44195 11.8453 5.57364
113 2 5.72538 7.98131 7.30872
114 2 8.00096 12.154 10.3896
115 2 5.31211 0.550204 5.84662
116 2 1.09945 11.6111 0.531191
117 2 4.38322 10.8541 5.44144
118 2 11.2658 6.459 1.64487
119 2 2.38385 10.9102 9.46857
120 2 4.64612 2.60718 2.57531
121 2 9.21299 8.49956 11.6215
122 2 11.0177 6.0926 9.39035
123 2 2.40469 6.30988 11.3683
124 2 0.55693 8.67733 9.29074
125 2 9.16374 0.256726 8.33646
126 2 1.75722 1.1738 4.07766
127 2 10.1167 4.38774 3.81346
128 2 1.52258 8.31448 7.03158
129 2 0.0504296 2.87758 2.02801
130 2 5.91256 6.00792 0.983177
131 2 11.8082 7.97332 3.19224
132 2 2.9073 3.54299 4.3318
133 2 4.78188 11.2352 10.9067
134 2 7.69559 12.3507 3.5095
135 2 5.64044 9.67441 9.3442
136 2 5.05705 11.4571 0.833095
137 2 8.82774 11.4334 1.53224
138 2 12.0305 0.966073 9.66495
139 2 4.39371 7.44459 12.2083
140 2 2.60657 3.32789 1.09043
141 2 12.3801 10.0422 5.18571
142 2 4.18824 7.38289 2.63848
143 2 10.836 9.388 10.2173
144 2 10.8404 6.00059 5.73848
145 2 1.07533 4.82464 0.222593
146 2 1.86893 5.38978 4.54665
147 2 9.82838 9.73082 2.43105
148 2 8.3796 6.5256 11.0075
149 2 8.75755 4.10818 2.22189
150 2 2.83097 4.21165 9.04902
151 2 5.51201 5.7193 6.378
152 2 3.85039 9.63354 3.83118
153 2 5.98632 3.92294 3.85272
154 2 11.0943 2.68675 10.9572
155 2 5.96885 8.25366 4.34638
156 2 6.61227 5.60364 10.1287
157 2 1.9543 6.48763 6.35131
158 2 9.86435 8.33955 6.97677
159 2 8.46037 5.14276 6.97046
160 2 5.00823 1.18748 11.545
161 2 2.61335 11.6249 3.96138
162 2 1.91986 6.15358 8.51512
163 2 6.0672 8.68423 0.647573
164 2 12.2241 7.19895 11.0839
165 2 6.56298 3.77542 8.10227
166 2 7.41277 1.64137 8.98072
167 2 1.68087 1.93885 6.06683
168 2 9.06932 1.27051 6.22263
169 2 8.78313 2.67643 11.4725
170 2 1.6801 9.60228 0.968497
171 2 12.0342 3.05104 7.35526
172 2 11.9637 1.04524 1.14617
173 2 8.18692 1.11414 0.178262
174 2 8.96558 9.52216 8.36411
175 2 2.94153 11.6229 6.73723
176 2 7.17913 10.4457 4.86706
177 2 6.86394 9.0366 7.43914
178 2 7.22679 10.8573 10.8289
179 2 5.46602 1.59124 4.70545
180 2 1.71178 11.447 1.98099
181 2 5.02189 10.2669 6.79501
182 2 10.1571 5.32954 1.2164
183 2 1.26133 11.637 10.2251
184 2 5.91226 1.58167 2.7026
185 2 9.26211 7.15637 0.188637
186 2 10.7043 6.34606 7.95735
187 2 2.07831 7.22039 0.183692
188 2 0.920168 9.60596 10.3966
189 2 10.2924 12.1072 7.52359
190 2 0.693727 2.2915 4.213
191 2 9.31741 3.0802 4.25481
192 2 1.04587 9.93843 7.0796
ITEM: TIMESTEP
200
ITEM: NUMBER OF ATOMS
192
ITEM: BOX BOUNDS xy xz yz pp pp pp
0.0000000000000000e+00 1.2444699999999999e+01 0.0000000000000000e+00
0.0000000000000000e+00 1.2444699999999999e+01 0.0000000000000000e+00
0.0000000000000000e+00 1.2444699999999999e+01 0.0000000000000000e+00
ITEM: ATOMS id type x y z
1 1 12.1436 2.05737 2.63219
2 1 5.36807 5.75429 1.96224
3 1 12.4233 7.62394 2.5311
4 1 3.01053 4.47949 4.62802
5 1 4.19548 12.1316 11.434
6 1 7.82182 0.236483 2.70397
7 1 5.83226 9.90543 10.1692
8 1 5.54875 11.2814 1.55438
9 1 9.52375 11.0617 1.29006
10 1 11.9628 0.0920512 8.97824
11 1 5.06358 7.57135 11.899
12 1 3.51669 3.53103 1.43351
13 1 12.1318 10.6525 4.83339
14 1 3.23541 7.93762 3.15155
15 1 9.8432 9.73587 10.1826
16 1 11.1122 5.22892 5.31322
17 1 0.904692 3.73932 0.312625
18 1 1.09149 6.31158 4.63542
19 1 10.2059 9.23592 3.12694
20 1 8.22256 5.65901 10.1977
21 1 8.26716 4.40853 1.56259
22 1 3.05239 3.33371 8.9351
23 1 5.27394 6.37244 6.91064
24 1 4.03064 10.2904 3.59032
25 1 5.92151 4.84395 4.62446
26 1 11.9193 2.33228 10.903
27 1 6.95829 8.78632 3.98115
28 1 5.41422 5.41854 9.84559
29 1 2.5867 7.06637 6.82471
30 1 10.5567 7.66444 6.72391
31 1 7.78927 4.4841 6.65633
32 1 5.28536 2.37611 12.0603
33 1 1.74086 11.8768 3.83245
34 1 1.79422 5.98606 9.3454
35 1 6.75009 8.77061 1.26562
36 1 11.8862 6.49456 10.8347
37 1 5.84039 2.73224 8.05846
38 1 7.83646 1.19188 9.112
39 1 1.32081 1.95307 7.39198
40 1 9.09634 2.18425 5.8308
41 1 9.40852 3.14476 10.4798
42 1 1.71441 8.58165 0.951236
43 1 11.6849 3.35785 7.13209
44 1 11.9662 0.122206 0.581896
45 1 7.91192 1.92255 12.4422
46 1 8.64718 9.50705 7.77825
47 1 1.85493 11.5235 7.09153
48 1 7.38959 11.2722 5.16568
49 1 6.07021 8.95725 7.49475
50 1 8.06211 11.5435 10.7864
51 1 5.67456 1.66993 5.78908
52 1 1.78307 11.2386 1.28555
53 1 4.67947 10.9228 6.26254
54 1 10.6507 6.0849 0.868472
55 1 1.88533 11.2759 10.0946
56 1 5.54871 2.56046 3.08631
57 1 9.04031 7.86892 12.0555
58 1 10.4571 5.69225 8.6683
59 1 2.77391 6.43669 0.0110798
60 1 0.0244171 8.96398 10.1124
61 1 9.4393 12.1847 7.10962
62 1 1.77536 2.08457 4.44601
63 1 9.78347 3.39175 3.66805
64 1 0.68649 9.04039 7.06404
65 2 11.3469 2.54055 3.02305
66 2 5.83911 5.5147 2.79979
67 2 0.368464 7.1324 3.32371
68 2 3.91883 4.45294 4.39566
69 2 3.3188 11.7721 11.1584
70 2 6.92185 12.3392 2.33589
71 2 5.3581 9.34776 10.806
72 2 5.83758 10.4142 1.22852
73 2 8.98765 11.0081 0.522798
74 2 0.2083 0.393351 8.39114
75 2 5.24222 6.99762 11.0564
76 2 3.75473 4.48644 1.53653
77 2 11.4887 10.1936 4.34968
78 2 2.56145 8.08315 2.42171
79 2 9.15571 10.5304 10.2867
80 2 11.4555 4.66604 6.09428
81 2 0.601056 3.32362 11.9145
82 2 0.312886 5.75636 4.78378
83 2 9.29771 9.04446 3.52776
84 2 8.98573 5.76041 9.57329
85 2 8.25165 3.5497 1.10033
86 2 3.99376 3.27761 8.79547
87 2 5.27037 5.78746 7.66524
88 2 4.61298 10.7391 2.91571
89 2 6.7408 4.85762 5.15834
90 2 12.0082 1.53155 11.3459
91 2 6.71554 8.86239 3.00583
92 2 5.09464 4.72738 10.4753
93 2 3.48638 6.7702 6.8314
94 2 11.4117 8.17071 6.81673
95 2 8.27088 3.61728 6.46697
96 2 4.60346 2.94762 0.0883538
97 2 0.932773 11.3602 3.93169
98 2 0.838181 5.86132 9.62384
99 2 7.53275 8.54926 0.774717
100 2 11.5285 6.43832 11.7019
101 2 5.65081 2.07272 7.37285
102 2 8.40069 1.95063 9.38506
103 2 2.01282 2.44867 7.90431
104 2 10.0014 2.39399 6.14309
105 2 8.92592 3.97146 10.3309
106 2 0.931363 8.29023 1.5135
107 2 11.3311 3.76482 7.89242
108 2 11.1401 12.0676 0.586747
109 2 6.94393 2.01325 12.2502
110 2 8.80796 10.4849 7.50274
111 2 1.87087 12.4119 6.66745
112 2 6.57245 11.3284 5.69179
113 2 5.73092 8.0989 7.266
114 2 7.92134 12.3763 10.1326
115 2 5.48186 0.710195 5.66918
116 2 1.10526 11.7985 0.900964
117 2 4.46334 10.6444 5.34008
118 2 11.336 6.15339 1.53165
119 2 2.25641 11.7404 9.27525
120 2 4.77674 2.64687 2.5306
121 2 9.38144 8.59024 11.4867
122 2 10.9497 5.87781 9.51217
123 2 2.4003 6.18578 11.5888
124 2 0.301402 9.48661 9.29054
125 2 8.73494 0.0897239 7.71458
126 2 1.92955 1.11946 4.27632
127 2 10.2279 4.10863 4.19093
128 2 1.40941 8.33083 6.82264
129 2 12.3772 2.50577 1.81465
130 2 6.00467 5.66365 1.28002
131 2 11.6666 8.10902 2.86605
132 2 2.6607 3.56207 4.46669
133 2 4.79498 11.5849 10.8871
134 2 7.80255 12.3374 3.67211
135 2 5.68002 9.62392 9.21484
136 2 4.93516 11.6322 0.918779
137 2 8.97625 11.6268 1.86339
138 2 11.9102 0.767974 9.63456
139 2 4.17672 7.27597 12.09
140 2 2.55732 3.59303 1.2197
141 2 12.3912 9.98944 5.54158
142 2 3.80717 7.30219 2.76897
143 2 10.7847 10.003 10.2764
144 2 10.7878 6.06603 5.71734
145 2 0.635214 4.62514 0.184514
146 2 1.85681 5.71912 4.28407
147 2 10.1555 9.78986 2.30127
148 2 8.30087 6.30597 10.9699
149 2 8.68517 3.96613 2.34061
150 2 2.81467 4.28898 9.01435
151 2 5.23681 5.79519 6.121
152 2 4.07945 9.32106 3.4326
153 2 5.86598 3.92564 4.2654
154 2 11.0007 2.60509 10.9458
155 2 6.29946 8.23439 4.398
156 2 6.39005 5.33701 9.98659
157 2 2.16425 6.51393 6.1398
158 2 9.82094 8.27186 6.9911
159 2 8.38714 5.19888 6.81362
160 2 4.90637 1.50597 11.9286
161 2 2.54506 11.3466 4.02143
162 2 1.9019 6.49084 8.53797
163 2 6.06683 8.19897 0.766012
164 2 11.9856 7.42705 10.6347
165 2 6.29836 3.55886 7.62709
166 2 6.94886 1.54432 9.00617
167 2 1.55321 2.2212 6.48868
168 2 9.09437 1.18044 5.7935
169 2 8.91546 2.64954 11.2071
170 2 1.71717 9.59124 1.1191
171 2 12.4058 2.80756 7.3518
172 2 12.0621 0.606839 1.40171
173 2 8.0108 1.16281 0.513367
174 2 9.0057 9.47688 8.64556
175 2 2.77729 11.159 6.92485
176 2 7.38842 10.3128 4.88353
177 2 7.00573 8.82934 7.47953
178 2 7.33397 10.9291 10.478
179 2 5.67019 1.99957 4.88866
180 2 1.84456 11.5001 2.24498
181 2 5.24149 10.242 6.64887
182 2 9.81234 5.7679 1.32684
183 2 0.973608 11.4824 10.0378
184 2 6.42183 2.20888 2.72382
185 2 9.7012 7.2733 0.0293945
186 2 10.7115 6.40462 8.14446
187 2 2.24129 7.26975 0.312905
188 2 0.753047 9.18662 10.6784
189 2 10.1844 12.1805 7.74128
190 2 1.10205 2.12961 3.61291
191 2 9.37796 2.8514 4.42576
192 2 1.19525 9.87819 7.08165
